@RELATION teapots

@ATTRIBUTE AIHelper {true, false}
@ATTRIBUTE Weight NUMERIC
@ATTRIBUTE IsNew {true, false}
@ATTRIBUTE Width NUMERIC
@ATTRIBUTE Length NUMERIC
@ATTRIBUTE Height NUMERIC
@ATTRIBUTE Warranty {No, HalfYear, OneYear, OneAndHalfYear, TwoYears, ThreeYears}
@ATTRIBUTE WarrantyProvidedBySeller {true, false}
@ATTRIBUTE PowerCordLength STRING
@ATTRIBUTE TeaBrewing {true, false}
@ATTRIBUTE WaterFillingWithoutOpening {true, false}
@ATTRIBUTE SoundSignalOnBoil {true, false}
@ATTRIBUTE IndicationTemperature {true, false}
@ATTRIBUTE IndicationWaterLevel {true, false}
@ATTRIBUTE IndicationSwitchingOn {true, false}
@ATTRIBUTE HeatingModesCount NUMERIC
@ATTRIBUTE WallsCount NUMERIC
@ATTRIBUTE MaxVolume NUMERIC
@ATTRIBUTE BodyMaterial STRING
@ATTRIBUTE AutoShutOffNoWater {true, false}
@ATTRIBUTE AutoShutOffOnLift {true, false}
@ATTRIBUTE DelayedStart {true, false}
@ATTRIBUTE Country {Китай, Россия, Турция, США, Германия}
@ATTRIBUTE Functions STRING

@DATA
false,-0.032947860062299814,true,0.030572998337795986,0.4653400620214543,-0.008423521715396193,TwoYears,false,?,false,false,false,false,true,true,1,1,-0.00138579277003169,'пластик',true,true,false,Китай,'шумоподавление'
false,-0.019682027203134833,true,0.21643638619119257,0.6764061970782925,1.1596149987054425,TwoYears,false,'0.8',false,false,false,true,true,true,5,2,-0.26292268281992076,'пластик',true,true,false,Китай,'поддержание_температуры'
false,-0.03795939692020659,false,1.1251018379189102,0.2073703413964291,-2.4819168590771743,TwoYears,false,'0.75',false,false,false,false,false,true,1,2,-0.26292268281992076,'пластик_сталь',true,true,false,Китай,'?'
false,-0.03442184149109593,false,-0.7748350156935908,-0.027147586444502582,-1.2451701903962853,OneYear,false,?,false,false,false,false,true,true,?,?,-1.1783017979945327,'пластик',true,true,false,Китай,'?'
false,-0.03619061920565126,false,0.6294661369765189,-1.316996189569627,-1.2451701903962853,ThreeYears,false,?,false,true,false,false,true,true,1,?,-0.26292268281992076,'стекло',true,true,false,Китай,'?'
false,0.0009537128000107003,true,0.29904233634825755,-4.154663116444901,3.220859446506924,TwoYears,false,?,false,false,true,true,true,true,5,1,-0.1321542377949761,'пластик_сталь',true,true,false,Китай,'поддержание_температуры'
false,-0.03736980434868815,true,-0.2998508022904654,-0.14440655036496844,-0.3863183371456682,TwoYears,false,'0.7',false,false,false,false,true,true,1,1,-0.00138579277003169,'пластик',true,false,false,Китай,'?'
false,-0.03560102663413282,true,0.6707691120550514,-0.6134424060468319,-0.8329213008359894,OneYear,false,'0.75',false,false,false,false,true,true,1,2,-0.00138579277003169,'сталь',true,true,false,Китай,'?'
false,-0.03442184149109593,false,0.5262086992801873,-0.6368941988309254,-0.5580887077957917,OneYear,false,'0.75',false,false,false,true,true,true,7,1,-0.00138579277003169,'сталь',true,true,false,Китай,'?'
false,-0.03972817463476192,false,-0.5270171652223952,0.019755999123683587,0.541241664364998,OneYear,false,'0.8',false,false,false,false,true,true,1,1,-0.00138579277003169,'пластик',true,true,false,Китай,'?'
false,-0.041791748635076474,true,-0.19659336459413382,-0.49618344212636595,1.5031557400056894,OneYear,false,'0.75',false,false,false,false,false,true,1,1,0.3909195423048021,'пластик_металл',true,true,false,Китай,'?'
false,-0.031473878633503705,true,0.8359810123691821,-0.9652192978082293,0.12899277480470206,OneYear,false,'0.7',false,false,false,false,true,true,1,?,-0.00138579277003169,'стекло_металл',true,true,false,Китай,'?'
false,-0.03937441909185086,true,-1.249819229096716,1.848995836282951,-1.142107968006211,OneYear,false,'0.7',false,false,false,false,false,true,1,1,-1.1783017979945327,'сталь',true,true,false,Китай,'?'
false,-0.022629990060727054,false,0.5262086992801873,0.32462930531689493,0.2664090713248003,OneYear,false,'0.7',false,false,false,false,true,true,1,1,-0.00138579277003169,'стекло',true,true,false,Китай,'?'
false,-0.016734064345542612,true,-0.38245675244753036,0.5825990259419201,0.40382536784489975,OneYear,false,?,false,false,false,false,true,true,?,1,-0.00138579277003169,'сталь',true,true,false,Китай,'?'
false,-0.03736980434868815,false,0.6294661369765189,-1.316996189569627,0.12899277480470206,OneYear,false,'0.7',false,false,false,false,true,true,1,1,-0.00138579277003169,'пластик',true,true,false,Россия,'?'
false,-0.058948892466263184,true,-1.0226528661647865,0.6295026115101063,0.47253351610494887,OneYear,false,'0.9',false,false,false,false,true,true,1,2,0.3909195423048021,'пластик',true,true,false,Китай,'?'
false,-0.03442184149109593,true,-0.7128805530757918,0.32462930531689493,-0.45502648540571733,OneYear,false,'0.75',false,false,false,false,true,true,1,1,-0.00138579277003169,'сталь',true,false,false,Китай,'?'
false,-0.02557795291831927,false,-0.5476686527616611,0.3949846836691746,0.6786579608850974,OneYear,false,'0.7',false,false,true,true,true,true,7,2,-0.00138579277003169,'сталь',true,true,false,Китай,'поддержание_температуры'
false,-0.022629990060727054,false,-0.5683201403009277,0.3480810981009885,0.6099498126250471,OneYear,false,'1',true,false,true,true,true,true,7,1,-0.00138579277003169,'сталь',true,true,false,Китай,'шумоподавление_поддержание_температуры_заваривание_чая'
false,-0.009364157201562067,true,-0.2998508022904654,0.2073703413964291,0.91913647979527,OneYear,false,'0.8',false,false,true,true,true,true,4,2,-0.26292268281992076,'пластик_сталь',true,true,false,Китай,'поддержание_температуры'
false,-0.031473878633503705,false,0.009921510798529376,-0.9652192978082293,-0.729859078445915,OneYear,false,'0.75',true,false,false,false,true,true,1,2,-0.00138579277003169,'пластик_стекло',true,true,false,Китай,'заваривание_чая'
false,-0.03442184149109593,true,-0.7128805530757918,0.2073703413964291,0.30076314545482546,OneYear,false,'0.7',false,false,false,true,true,true,7,2,-0.26292268281992076,'пластик_сталь',true,true,false,Китай,'поддержание_температуры'
false,-0.003468231486377638,true,-0.2378963396726663,0.4418882692373608,0.30076314545482546,OneYear,false,'0.8',true,false,true,true,true,true,6,?,-0.00138579277003169,'стекло',true,true,false,Китай,'поддержание_температуры_заваривание_чая'
false,-0.045476702207066746,true,-0.8574409658506559,-0.5430870276945522,0.19770092306475118,OneYear,false,'0.75',true,false,false,false,true,true,1,?,0.129382652254913,'сталь',true,true,false,Китай,'заваривание_чая'
false,-0.03442184149109593,false,-0.7748350156935908,-0.027147586444502582,-1.2451701903962853,OneYear,false,?,false,false,false,false,true,true,?,?,-1.1783017979945327,'пластик',true,true,false,Китай,'?'
false,-0.031473878633503705,false,1.35226820085084,0.5591472331578267,0.91913647979527,OneYear,false,'0.8',false,false,false,false,true,true,1,1,-0.00138579277003169,'пластик',true,true,false,Китай,'?'
false,-0.040317767206280365,true,-0.8161379907721233,0.6295026115101063,-0.21454796649554478,OneYear,false,'0.6',false,false,false,false,false,true,1,1,0.129382652254913,'пластик_металл',true,true,false,Китай,'?'
false,-0.031768674919262926,false,-1.2291677415574498,0.4418882692373608,-0.042777595845421366,OneYear,false,'0.75',false,false,false,false,true,true,1,2,0.129382652254913,'пластик_стекло',true,false,false,Китай,'?'
false,-0.02852591577591149,false,1.0837988628403779,-1.0824782617286952,1.2626772210955168,OneYear,false,'1.2',false,false,false,true,false,true,1,2,-0.00138579277003169,'пластик_металл',true,true,false,Китай,'поддержание_температуры'
false,-0.04120215606355803,true,-0.8161379907721233,-0.027147586444502582,-1.932251672996779,OneYear,false,'0.6',false,false,false,false,true,true,1,1,-0.9167649079446436,'пластик',true,false,false,Китай,'?'
false,-0.03442184149109593,true,-0.8161379907721233,0.4418882692373608,0.12899277480470206,OneYear,false,'0.65',false,false,false,false,true,true,1,2,-0.00138579277003169,'сталь',true,true,false,Китай,'?'
false,-0.031473878633503705,true,-1.0226528661647865,0.2073703413964291,1.1596149987054425,OneYear,false,'0.75',false,false,false,false,true,true,1,2,-0.00138579277003169,'сталь',true,true,false,Китай,'?'
false,-0.03736980434868815,true,-0.981349891086254,0.3949846836691746,0.30076314545482546,OneYear,false,'0.65',false,false,false,false,true,true,1,2,-0.26292268281992076,'пластик_сталь',true,true,false,Китай,'?'
false,0.011271582801583455,true,0.42295126158385576,5.83580060957879,0.8160742574051957,OneYear,false,'0.7',true,true,true,false,false,true,2,?,0.3909195423048021,'пластик_стекло',true,true,false,Китай,'поддержание_температуры_заваривание_чая'
false,-0.012312120059154288,true,-0.2998508022904654,0.2073703413964291,1.1596149987054425,OneYear,false,'0.7',true,true,true,true,true,true,5,1,-0.00138579277003169,'стекло',true,true,false,Китай,'поддержание_температуры_заваривание_чая'
false,-0.029027069461702165,false,1.0218444002225786,-0.5665388204786457,0.47253351610494887,TwoYears,false,?,false,false,false,false,true,true,1,1,-0.00138579277003169,'сталь',true,true,false,Китай,'?'
false,-0.012164721916274681,true,1.6620405139398349,0.7936651609987584,-0.042777595845421366,ThreeYears,false,'1',false,false,false,false,false,true,1,?,0.3909195423048021,'металл',true,true,false,Турция,'?'
false,-0.03442184149109593,false,0.8359810123691821,0.6764061970782925,0.8160742574051957,OneYear,false,'0.7',false,false,false,false,true,true,1,?,-0.00138579277003169,'металл',true,true,false,Китай,'?'
false,-0.029292386118885468,false,0.7120720871335839,-1.199737225649161,0.06028462654465293,TwoYears,false,'0.75',false,false,false,false,true,true,1,1,-0.00138579277003169,'стекло',true,true,false,Китай,'?'
false,-0.03589582291989204,true,-0.6922290655365255,0.3715328908850811,0.02593055241462776,OneYear,false,'0.65',false,false,false,false,true,true,1,?,-0.00138579277003169,'пластик_стекло',true,true,false,Китай,'?'
false,-0.02970510091894838,true,-0.9193954284684549,0.4418882692373608,-0.729859078445915,OneYear,false,'0.8',false,false,false,false,true,true,1,?,-0.00138579277003169,'стекло',true,true,false,Китай,'?'
false,-0.03736980434868815,true,-0.7128805530757918,0.2073703413964291,-0.5580887077957917,OneYear,false,?,false,false,false,false,true,true,1,1,0.129382652254913,'пластик_стекло',true,true,false,Китай,'?'
false,-0.032947860062299814,false,-0.8161379907721233,0.6060508187260129,0.7130120350151214,OneYear,?,?,false,false,false,false,true,false,?,?,-0.00138579277003169,'пластик',true,true,false,Китай,'?'
false,-0.03442184149109593,true,-0.19659336459413382,-0.7307013699672976,-1.5887109316965322,TwoYears,false,'0.9',false,false,false,false,true,true,1,1,-0.00138579277003169,'сталь',true,true,false,Китай,'шумоподавление'
false,-0.03560102663413282,false,-1.1259103038611182,0.6764061970782925,0.47253351610494887,OneYear,false,'0.7',false,false,false,false,true,true,1,2,-0.00138579277003169,'пластик',true,true,false,Китай,'?'
false,-0.040317767206280365,false,-0.8161379907721233,-1.199737225649161,0.12899277480470206,OneYear,false,'0.75',false,false,false,false,true,true,1,1,0.129382652254913,'сталь',true,true,false,Китай,'?'
false,-0.03442184149109593,false,-0.4981050826674222,0.7350356790385254,0.21144255271676077,OneYear,true,'75',false,false,true,false,true,true,1,1,-0.00138579277003169,'стекло',true,true,false,Китай,'?'
false,0.0009537128000107003,true,0.21643638619119257,0.6764061970782925,1.1596149987054425,TwoYears,false,'0.7',false,true,true,true,true,true,5,1,-0.00138579277003169,'пластик_металл',true,true,false,Китай,'поддержание_температуры'
false,-0.016734064345542612,false,-0.38245675244753036,0.5825990259419201,0.40382536784489975,OneYear,false,?,false,false,false,false,true,true,?,?,-0.00138579277003169,'сталь',true,true,false,Китай,'?'
false,-0.016734064345542612,true,0.691420599594318,-0.7072495771832041,0.33511721958485063,OneYear,false,'1',false,false,false,false,true,true,1,1,-0.00138579277003169,'пластик_сталь',true,true,false,Китай,'?'
false,-0.022629990060727054,true,0.5262086992801873,-1.316996189569627,1.6749261106558129,OneYear,false,'0.7',true,false,true,true,false,true,4,2,-0.1321542377949761,'пластик_сталь',true,true,false,Китай,'поддержание_температуры_заваривание_чая'
false,-0.02675713806135616,true,-0.19659336459413382,-0.49618344212636595,1.1596149987054425,TwoYears,false,'1',false,false,false,false,true,true,1,1,-0.00138579277003169,'пластик',true,true,false,Китай,'шумоподавление'
false,-0.045918896635705586,false,0.6294661369765189,-1.0355746761605091,-0.042777595845421366,OneYear,true,?,false,false,false,false,false,true,?,1,0.129382652254913,'сталь',true,true,false,Китай,'?'
false,-0.03088428606198526,true,0.6294661369765189,-0.9886710905923224,0.2664090713248003,OneYear,false,'0.8',false,false,false,false,true,true,1,1,-0.00138579277003169,'стекло',true,true,false,Китай,'?'
false,-0.030589489776226046,true,-0.6302746029187264,0.7702133682146648,0.953490553925294,TwoYears,false,'0.75',false,false,false,false,true,true,1,1,0.129382652254913,'стекло_металл',true,true,false,Китай,'?'
false,-0.03442184149109593,true,-0.7748350156935908,-0.027147586444502582,-1.2451701903962853,OneYear,false,'1',false,false,false,false,true,true,1,1,-1.1783017979945327,'пластик',true,true,false,Китай,'?'
false,-0.0019942500575815206,true,1.7033434890183674,0.9343759177033177,-1.142107968006211,ThreeYears,false,'1',false,true,true,true,true,true,6,2,-0.26292268281992076,'алюминий',true,true,false,Китай,'шумоподавление_поддержание_температуры'
false,-0.022629990060727054,false,-0.5683201403009277,0.3480810981009885,0.6099498126250471,OneYear,false,'1',true,false,true,true,true,true,7,1,-0.00138579277003169,'сталь',true,true,false,США,'шумоподавление_поддержание_температуры_заваривание_чая'
false,-0.03736980434868815,false,0.6294661369765189,-1.316996189569627,0.12899277480470206,OneYear,false,'0.7',false,false,false,false,true,true,1,1,-0.00138579277003169,'пластик',true,true,false,Россия,'?'
false,-0.04344260783532812,true,0.5262086992801873,-0.9652192978082293,-0.729859078445915,OneYear,false,'0.7',false,false,false,false,false,true,1,2,0.129382652254913,'пластик_сталь',true,true,false,Китай,'?'
false,-0.04562410034994636,false,0.6294661369765189,-1.199737225649161,-0.14583981823549566,OneYear,true,'0.8',false,false,false,false,false,true,1,1,0.129382652254913,'пластик_сталь',true,true,false,Китай,'?'
false,-0.0019942500575815206,true,1.7033434890183674,0.9343759177033177,-1.142107968006211,ThreeYears,false,'1',false,true,true,true,true,true,7,2,-0.26292268281992076,'алюминий',true,true,false,Китай,'шумоподавление_поддержание_температуры'
false,-0.010838138630358178,false,-0.38245675244753036,0.5825990259419201,1.331385369355566,OneYear,false,'1',false,false,true,true,true,true,8,?,-0.00138579277003169,'сталь',true,true,false,Китай,'поддержание_температуры'
false,-0.036455935862834556,true,-0.7128805530757918,0.488791854805547,0.8160742574051957,TwoYears,false,'0.75',false,true,false,false,true,true,1,1,-0.00138579277003169,'пластик_стекло',true,true,false,Китай,'?'
false,-0.022629990060727054,true,-0.6096231153794601,-0.9652192978082293,1.1596149987054425,TwoYears,false,'0.7',false,false,false,true,true,true,5,2,-0.00138579277003169,'пластик_металл',true,true,false,Китай,'шумоподавление_поддержание_температуры'
false,-0.045329304064187136,false,0.6294661369765189,-1.316996189569627,-0.042777595845421366,OneYear,true,'0.8',false,false,false,false,false,true,1,1,0.129382652254913,'пластик_сталь',true,true,false,Китай,'?'
false,-0.016734064345542612,false,-0.38245675244753036,0.5825990259419201,0.40382536784489975,OneYear,false,?,false,false,false,false,true,true,?,?,-0.00138579277003169,'сталь',true,true,false,Китай,'?'
false,-0.04562410034994636,false,0.5468601868194539,-1.0824782617286952,-0.042777595845421366,OneYear,true,'0.8',false,false,false,false,false,true,1,1,0.129382652254913,'пластик_сталь',true,true,false,Китай,'?'
false,-0.0019942500575815206,true,1.7033434890183674,0.9343759177033177,-1.142107968006211,ThreeYears,false,'1',false,true,true,true,true,true,7,2,-0.26292268281992076,'алюминий',true,true,false,Китай,'шумоподавление_поддержание_температуры'
false,-0.02557795291831927,false,-0.5476686527616611,0.3949846836691746,0.6786579608850974,OneYear,false,'0.7',false,false,true,true,true,true,7,2,-0.00138579277003169,'сталь',true,true,false,Китай,'поддержание_температуры'
false,-0.023249062260821417,false,0.5881631618979865,0.3480810981009885,0.19770092306475118,OneYear,false,'0.7',false,false,false,true,true,true,7,1,-0.00138579277003169,'стекло',true,true,false,Китай,'?'
false,-0.010838138630358178,false,-0.38245675244753036,0.5825990259419201,1.331385369355566,OneYear,false,'1',false,false,false,true,true,true,7,?,-0.00138579277003169,'сталь',true,true,false,Китай,'?'
true,0.02394782308923,true,0.8979354749869812,-0.027147586444502582,1.331385369355566,TwoYears,false,'1',false,true,true,true,true,true,13,2,-0.5244595728698098,'сталь',true,true,false,Китай,'поддержание_температуры'
false,-0.031768674919262926,false,-1.2291677415574498,0.4418882692373608,-0.042777595845421366,OneYear,false,'0.75',false,false,false,false,true,true,1,2,0.129382652254913,'пластик_стекло',true,false,false,Китай,'?'
false,-0.010838138630358178,false,-0.38245675244753036,0.5825990259419201,1.331385369355566,OneYear,false,'1',false,false,true,true,true,true,8,?,-0.00138579277003169,'пластик_сталь',true,true,false,Китай,'?'
false,-0.035306230348373595,true,-0.8161379907721233,0.2073703413964291,0.12899277480470206,OneYear,false,'0.8',false,false,false,false,true,true,1,1,-0.00138579277003169,'сталь',true,true,false,Китай,'?'
false,-0.031179082347744483,false,-0.8161379907721233,0.4418882692373608,0.5240646272999855,OneYear,false,'1.2',false,false,false,false,false,true,1,2,-0.00138579277003169,'пластик_металл',false,true,false,Китай,'?'
false,-0.0019942500575815206,true,1.7033434890183674,0.9343759177033177,-1.142107968006211,ThreeYears,false,'1',false,true,true,true,true,true,6,2,-0.26292268281992076,'алюминий',true,true,false,Китай,'шумоподавление_поддержание_температуры'
false,-0.010838138630358178,false,-0.38245675244753036,0.5825990259419201,1.331385369355566,OneYear,false,'1',false,false,false,true,true,true,7,?,-0.00138579277003169,'сталь',true,true,false,Китай,'?'
false,-0.031768674919262926,false,-1.2291677415574498,0.4418882692373608,-0.042777595845421366,OneYear,false,'0.75',false,false,false,false,true,true,1,2,0.129382652254913,'пластик_стекло',true,false,false,Китай,'?'
false,-0.03972817463476192,false,0.42295126158385576,-0.9652192978082293,-0.3863183371456682,OneYear,true,'0.75',true,false,false,false,true,true,1,1,0.129382652254913,'стекло',true,true,false,Китай,'заваривание_чая'
false,-0.031473878633503705,false,-0.6096231153794601,1.2861528094647152,-0.45502648540571733,OneYear,false,'0.7',false,false,true,true,true,true,4,2,-0.00138579277003169,'пластик',true,true,false,Китай,'поддержание_температуры'
false,-0.016734064345542612,false,-0.38245675244753036,0.5825990259419201,1.331385369355566,OneYear,false,'1',false,false,true,true,true,true,8,?,-0.00138579277003169,'сталь',true,true,false,Китай,'поддержание_температуры'
false,-0.02705193434711538,true,-0.403108239986797,0.9578277104874103,0.30076314545482546,OneYear,false,'0.7',false,false,false,false,true,true,1,1,-0.00138579277003169,'пластик_стекло',true,true,false,Китай,'?'
false,-0.016734064345542612,true,-0.38245675244753036,0.5825990259419201,0.40382536784489975,OneYear,false,'1',false,false,false,false,true,true,1,?,-0.00138579277003169,'пластик_сталь',true,true,false,Китай,'?'
false,-0.016734064345542612,false,-0.38245675244753036,0.5825990259419201,1.331385369355566,OneYear,false,'1',false,false,true,true,true,true,8,?,-0.00138579277003169,'сталь',true,true,false,Китай,'поддержание_температуры'
false,-0.03442184149109593,true,0.7533750622121171,-0.2616655142854343,-0.5580887077957917,TwoYears,false,'0.7',false,true,false,false,true,true,1,1,-0.00138579277003169,'сталь',true,true,false,Китай,'шумоподавление'
false,-0.010838138630358178,false,-0.38245675244753036,0.5825990259419201,1.331385369355566,OneYear,false,'1',false,false,true,true,true,true,8,?,-0.00138579277003169,'сталь',true,true,false,Китай,'поддержание_температуры'
false,-0.022629990060727054,false,0.5262086992801873,0.32462930531689493,0.12899277480470206,TwoYears,false,'0.8',false,false,false,false,true,true,1,1,-0.00138579277003169,'пластик_стекло_металл',true,true,false,Китай,'?'
false,-0.04503450777842791,false,0.6294661369765189,-1.3873515679219066,-0.14583981823549566,OneYear,true,'0.8',false,false,false,false,false,true,1,1,0.129382652254913,'пластик_сталь',true,true,false,Китай,'?'
false,-0.052109618636649244,false,22.933072679384143,-2.3723268648538194,-2.9628738968975195,OneYear,false,'0.7',false,false,false,true,false,true,6,2,-1.7013755780943107,'пластик_металл',true,false,false,Китай,'шумоподавление_поддержание_температуры'
false,-0.02557795291831927,true,1.2490107631545084,-0.6134424060468319,1.1596149987054425,OneYear,false,'0.7',false,false,false,true,true,true,1,1,-0.00138579277003169,'сталь',true,true,false,Китай,'?'
false,-0.029999897204707603,true,0.8359810123691821,-1.0824782617286952,0.8160742574051957,OneYear,false,'0.6',false,false,false,false,false,true,1,2,-0.26292268281992076,'пластик_сталь',true,true,false,Китай,'?'
false,-0.02557795291831927,true,0.8153295248299155,0.9109241249192241,0.6443038867550723,OneYear,false,'0.7',false,false,true,true,true,true,6,1,-0.00138579277003169,'стекло',true,true,false,Китай,'поддержание_температуры'
false,-0.023809175203763938,true,-0.11398741443706882,0.11356317026005677,0.30076314545482546,TwoYears,false,'0.9',false,false,false,false,true,true,1,1,-0.26292268281992076,'пластик',true,true,false,Китай,'?'
false,-0.02557795291831927,true,1.2490107631545084,-0.6134424060468319,1.1596149987054425,OneYear,false,'0.7',false,false,false,true,true,true,1,1,-0.00138579277003169,'сталь',true,true,false,Китай,'?'
false,-0.032947860062299814,true,-0.6509260904579927,0.18391854861233561,0.47253351610494887,OneYear,false,'0.6',false,false,true,true,true,true,7,1,-0.00138579277003169,'пластик_сталь_стекло',true,true,false,Китай,'поддержание_температуры'
false,-0.033861728548153405,true,1.1044503503796443,-0.9652192978082293,0.33511721958485063,TwoYears,false,'0.5',false,false,false,false,true,true,1,1,-0.00138579277003169,'пластик',true,true,false,Китай,'?'
false,0.024537415660748442,true,0.6294661369765189,4.311434078612733,0.9878446280553191,OneYear,false,'0.75',true,false,true,true,true,false,2,1,-0.00138579277003169,'сталь_стекло',true,true,false,Китай,'поддержание_температуры_заваривание_чая'
false,-0.02852591577591149,true,-0.7128805530757918,0.4418882692373608,-0.21454796649554478,OneYear,false,'0.72',false,false,false,false,true,true,1,1,-0.26292268281992076,'сталь_стекло',true,true,false,Китай,'?'
false,-0.031473878633503705,false,-0.7128805530757918,0.5591472331578267,0.47253351610494887,OneYear,false,'0.7',false,true,true,true,false,true,5,2,-0.00138579277003169,'пластик_металл',true,true,false,Китай,'поддержание_температуры'
false,-0.02557795291831927,true,0.8772839874477146,-0.027147586444502582,0.9878446280553191,OneYear,false,'0.7',false,false,true,true,true,true,5,1,-0.00138579277003169,'пластик_металл',true,true,false,Китай,'поддержание_температуры'
false,-0.02439876777528238,true,0.42295126158385576,0.9109241249192241,1.1596149987054425,OneYear,false,'1',false,false,true,true,true,true,66,1,0.3909195423048021,'пластик_сталь_стекло',true,true,false,Китай,'поддержание_температуры'
false,-0.03589582291989204,true,0.5262086992801873,0.06665958469186976,-0.1801938923655196,OneYear,false,'0.7',false,false,false,false,true,true,1,1,-0.00138579277003169,'пластик',true,true,false,Китай,'?'
false,-0.036780211777169704,true,-0.19659336459413382,0.4418882692373608,0.12899277480470206,ThreeYears,false,'0.7',false,false,false,false,true,true,5,2,-0.00138579277003169,'стекло_металл',true,true,true,Китай,'поддержание_температуры'
false,-0.016734064345542612,false,-0.38245675244753036,0.5825990259419201,0.40382536784489975,OneYear,false,'1',false,false,false,false,true,true,1,1,-0.00138579277003169,'сталь',true,true,false,Китай,'?'
false,-0.040317767206280365,true,-0.403108239986797,0.2073703413964291,-0.9016294490960385,OneYear,false,'0.68',false,false,false,true,true,true,1,1,-0.00138579277003169,'сталь',true,true,false,Китай,'?'
false,-0.027936323204393047,true,0.774026549751383,0.2073703413964291,0.47253351610494887,OneYear,false,?,false,false,true,true,true,true,5,1,-0.00138579277003169,'металл',true,true,false,Китай,'поддержание_температуры'
false,-0.03501143406261437,true,-0.6096231153794601,0.7936651609987584,-0.24890204062556995,OneYear,false,'0.75',false,false,false,false,true,true,1,?,-0.00138579277003169,'сталь',true,true,false,Китай,'?'
false,-0.016734064345542612,false,-0.38245675244753036,0.5825990259419201,0.40382536784489975,OneYear,false,'1',false,false,false,false,true,true,1,1,-0.00138579277003169,'сталь',true,true,false,Китай,'?'
false,-0.031473878633503705,true,0.36099679896605663,-1.1293818472968813,0.23205499719477635,OneYear,false,'0.7',false,false,true,true,true,true,5,1,-0.00138579277003169,'стекло_металл',true,true,false,Китай,'поддержание_температуры'
false,-0.031473878633503705,false,-0.6509260904579927,0.3480810981009885,-0.3176101888856191,OneYear,false,'0.7',false,true,false,false,true,true,1,1,0.129382652254913,'пластик_стекло_металл',true,true,false,Китай,'?'
false,-0.03766460063444736,true,-0.7748350156935908,1.2627010166806216,-0.5580887077957917,OneYear,false,'0.75',false,false,false,true,false,true,1,1,-0.00138579277003169,'пластик_сталь',false,false,false,Китай,'?'
false,-0.03736980434868815,true,0.5262086992801873,0.3480810981009885,-2.7567494521173717,OneYear,false,'0.6',false,false,false,false,true,true,1,1,0.129382652254913,'пластик_стекло',true,true,false,Китай,'?'
false,-0.02852591577591149,true,-0.48571419014386197,0.3949846836691746,-0.042777595845421366,OneYear,false,'0.7',true,false,true,true,true,true,5,1,-0.26292268281992076,'пластик_стекло_металл',true,true,false,Китай,'поддержание_температуры_заваривание_чая'
false,-0.016734064345542612,true,1.1457533254581769,0.2777257197487088,0.9878446280553191,OneYear,false,'0.65',false,false,false,false,true,true,?,2,-0.26292268281992076,'пластик',true,true,false,Китай,'шумоподавление_поддержание_температуры'
false,-0.03698656917720115,true,0.46425423666238824,-1.176285432865068,-0.24890204062556995,ThreeYears,false,'0.7',false,false,false,true,true,true,1,1,-0.00138579277003169,'сталь',true,true,false,Китай,'?'
false,-0.012312120059154288,true,0.6294661369765189,0.6764061970782925,0.9878446280553191,OneYear,false,'0.6',true,false,true,true,true,true,7,1,-0.00138579277003169,'пластик_сталь',true,true,true,Китай,'поддержание_температуры_заваривание_чая'
false,-0.03088428606198526,true,-0.8161379907721233,0.4418882692373608,0.06028462654465293,OneYear,false,'0.65',false,false,false,false,true,true,1,1,-0.00138579277003169,'пластик_сталь_стекло',true,false,false,Китай,'?'
false,-0.03442184149109593,true,-0.403108239986797,-0.7307013699672976,0.12899277480470206,TwoYears,false,'0.9',false,false,false,false,true,true,1,1,-0.00138579277003169,'стекло',true,true,false,Китай,'шумоподавление'
false,-0.03501143406261437,true,0.6294661369765189,-0.82450854110367,-0.3176101888856191,OneYear,false,'0.74',false,false,false,true,true,true,1,1,-0.00138579277003169,'металл',true,true,false,Китай,'?'
false,-0.03589582291989204,true,-0.8161379907721233,0.2073703413964291,-0.008423521715396193,OneYear,false,'0.63',false,false,false,false,true,true,1,1,-0.00138579277003169,'пластик_стекло',true,true,false,Китай,'?'
false,0.025421804518026104,true,0.6294661369765189,1.4972189445215534,5.110333523658281,OneYear,false,'0.75',true,false,true,true,true,true,30,1,-0.00138579277003169,'пластик_стекло',true,true,false,Китай,'поддержание_температуры_заваривание_чая'
false,-0.031473878633503705,false,-0.8161379907721233,0.32462930531689493,0.47253351610494887,OneYear,false,'0.65',false,false,true,true,true,true,6,2,-0.26292268281992076,'пластик_стекло',true,true,false,Китай,'поддержание_температуры'
false,-0.03619061920565126,true,-0.6302746029187264,0.5591472331578267,0.02593055241462776,OneYear,false,'0.69',false,false,true,true,true,true,5,1,-0.00138579277003169,'пластик_стекло',true,true,false,Китай,'поддержание_температуры'
false,-0.041791748635076474,true,0.42295126158385576,-0.7307013699672976,-0.21454796649554478,OneYear,false,'1',false,false,false,false,false,true,1,1,0.129382652254913,'пластик_сталь',true,true,false,Китай,'?'
false,-0.043560526349631805,true,1.0011929126833128,-1.316996189569627,-1.932251672996779,OneYear,false,'0.7',false,false,false,false,true,true,1,1,-0.9167649079446436,'сталь',true,true,false,Китай,'?'
false,-0.04326573006387258,true,0.5262086992801873,-1.316996189569627,-1.932251672996779,OneYear,false,'0.7',false,false,false,false,true,true,1,1,-0.9167649079446436,'сталь',true,true,false,Китай,'?'
false,-0.03736980434868815,true,-0.403108239986797,0.32462930531689493,-0.11148574410547049,OneYear,false,'0.7',false,false,true,true,true,true,7,1,-0.00138579277003169,'пластик_сталь',true,true,false,Китай,'поддержание_температуры'
false,-0.026462341775596938,true,0.7120720871335839,1.4972189445215534,-1.1764620421362362,ThreeYears,false,'0.7',false,false,true,true,true,true,5,1,-0.00138579277003169,'сталь_стекло',true,true,false,Китай,'поддержание_температуры'
false,-0.045329304064187136,false,-0.6096231153794601,0.6764061970782925,-0.5580887077957917,OneYear,true,?,false,false,false,false,false,true,?,1,0.129382652254913,'сталь',true,true,false,Китай,'?'
false,-0.042086544920835696,true,-0.6302746029187264,0.13701496304414942,-0.2832561147555939,OneYear,false,'0.7',true,false,false,false,true,true,1,?,-0.00138579277003169,'пластик',false,false,false,Китай,'заваривание_чая'
false,-0.04061256349203959,true,-0.4444112150653295,0.16046675582824294,-0.6955050043158899,OneYear,false,'0.75',false,false,false,true,true,true,1,1,-0.00138579277003169,'металл',true,true,false,Китай,'?'
false,-0.03736980434868815,true,0.6294661369765189,-0.37892447820590014,-0.9016294490960385,OneYear,false,'0.72',false,false,false,true,true,true,1,1,-0.00138579277003169,'металл',true,true,false,Китай,'?'
false,-0.03972817463476192,true,-0.8987439409291887,0.4418882692373608,0.19770092306475118,OneYear,false,'0.75',false,false,false,false,true,true,1,1,-0.00138579277003169,'пластик_стекло',true,true,false,Китай,'?'
false,-0.03442184149109593,true,0.6294661369765189,-0.14440655036496844,-1.4169405610464088,TwoYears,false,'0.8',false,false,false,true,true,true,1,1,-0.00138579277003169,'сталь',true,true,false,Китай,'?'
false,-0.03442184149109593,true,0.9392384500655137,-1.6687730813310244,-1.2451701903962853,TwoYears,false,'0.8',false,false,false,false,true,true,7,1,-0.00138579277003169,'сталь',true,true,false,Китай,'поддержание_температуры'
false,-0.036485415491410475,true,-0.6922290655365255,0.488791854805547,-0.21454796649554478,OneYear,false,'0.75',false,false,false,false,true,true,1,1,-0.00138579277003169,'пластик_стекло',true,true,false,Китай,'?'
false,-0.03442184149109593,true,-0.19659336459413382,-0.49618344212636595,-1.2451701903962853,TwoYears,false,'0.7',false,false,false,false,true,true,1,1,-0.00138579277003169,'пластик',true,true,false,Китай,'?'
false,-0.04061256349203959,true,-0.6096231153794601,0.4653400620214543,0.19770092306475118,OneYear,false,'0.7',true,false,false,false,true,true,1,?,-0.00138579277003169,'пластик',true,true,false,Китай,'заваривание_чая'
false,-0.04061256349203959,true,-0.6096231153794601,0.4653400620214543,0.19770092306475118,OneYear,false,'0.7',true,false,false,false,true,true,1,2,-0.00138579277003169,'пластик',true,true,false,Китай,'заваривание_чая'
false,-0.028820712061670712,true,-0.6096231153794601,0.8640205393510381,-0.14583981823549566,OneYear,false,'0.8',false,false,false,false,true,true,1,?,-0.00138579277003169,'стекло',true,true,false,Китай,'?'
false,-0.0462136929214648,true,-0.4237597275260636,-1.3873515679219066,-1.7261272282166304,OneYear,false,'0.8',false,false,false,false,true,true,1,1,-1.5706071330693665,'пластик',true,true,false,Китай,'шумоподавление'
false,-0.02439876777528238,true,-0.19659336459413382,-2.3723268648538194,-1.5887109316965322,TwoYears,false,'0.9',false,false,false,false,true,true,1,2,-0.00138579277003169,'пластик_металл',true,true,false,Китай,'шумоподавление'
false,-0.029262906490309545,true,0.5055572117409207,-1.0121228833764155,0.09463870067467688,ThreeYears,false,'0.7',false,false,false,false,true,true,1,1,-0.00138579277003169,'сталь_стекло',true,true,false,Китай,'?'
false,-0.036485415491410475,true,-0.6922290655365255,0.488791854805547,-0.21454796649554478,OneYear,false,'0.75',false,false,false,false,true,true,1,1,-0.00138579277003169,'пластик_стекло',true,true,false,Китай,'?'
false,-0.02557795291831927,true,-0.7128805530757918,0.32462930531689493,0.47253351610494887,OneYear,false,'0.72',false,false,true,true,true,true,5,1,-0.00138579277003169,'сталь_стекло',true,true,false,Китай,'поддержание_температуры'
false,-0.03736980434868815,true,-0.09333592689780222,-0.027147586444502582,-3.8217257501481368,OneYear,false,'0.75',false,false,false,false,true,true,1,2,-1.5706071330693665,'пластик_сталь',true,true,false,Китай,'?'
false,-0.024693564061041604,true,0.6294661369765189,-1.316996189569627,0.40382536784489975,OneYear,false,'0.7',false,false,true,true,true,true,13,1,-0.00138579277003169,'сталь_стекло',true,true,false,Китай,'поддержание_температуры'
false,-0.03736980434868815,true,0.38164828650532323,2.177320935260255,-2.6536872297272973,OneYear,false,'0.7',false,false,true,true,false,true,6,1,-0.9167649079446436,'сталь',true,true,false,Китай,'поддержание_температуры'
false,-0.03972817463476192,true,0.21643638619119257,-1.199737225649161,-0.5580887077957917,OneYear,false,'0.75',false,false,false,false,true,true,1,1,-0.00138579277003169,'пластик_металл',true,true,false,Китай,'?'
false,-0.03362589151954603,true,-0.6096231153794601,0.5122436475896405,0.541241664364998,OneYear,false,'0.6',true,false,true,true,true,true,5,1,0.3909195423048021,'пластик_стекло',true,true,false,Китай,'поддержание_температуры_заваривание_чая'
false,-0.03501143406261437,true,-0.6096231153794601,0.7467615754305722,-0.2832561147555939,OneYear,false,'0.75',false,false,true,false,true,true,1,1,?,'сталь',true,true,false,Китай,'?'
false,-0.031473878633503705,true,0.8359810123691821,-0.9886710905923224,0.541241664364998,OneYear,false,'0.7',false,false,false,false,true,true,1,2,-0.26292268281992076,'пластик_металл',true,true,false,Китай,'поддержание_температуры'
false,-0.03442184149109593,true,-0.19659336459413382,-0.9652192978082293,-0.5580887077957917,TwoYears,false,'0.8',false,false,false,true,true,true,7,1,-0.00138579277003169,'сталь',true,false,false,Китай,'поддержание_температуры'
false,-0.029115508347429934,true,-0.5063656776831286,0.6060508187260129,1.2283231469654916,OneYear,false,'0.7',false,false,true,true,false,true,13,?,-0.1321542377949761,'пластик',true,true,false,Китай,'шумоподавление_поддержание_температуры'
false,-0.02852591577591149,true,0.48490572420165484,-0.7307013699672976,-0.5580887077957917,TwoYears,false,'0.75',true,false,true,true,true,true,4,1,-0.9167649079446436,'стекло',true,true,false,Китай,'поддержание_температуры_заваривание_чая'
false,-0.036338017348530864,true,-0.8161379907721233,-0.5430870276945522,-0.21454796649554478,OneYear,false,'0.75',true,false,false,false,true,true,1,?,0.3909195423048021,'стекло',true,true,false,Китай,'заваривание_чая'
false,-0.03088428606198526,true,-0.8161379907721233,0.2073703413964291,-0.042777595845421366,OneYear,false,'0.8',false,false,false,true,true,true,5,1,-0.00138579277003169,'сталь',true,true,false,Китай,'поддержание_температуры'
false,-0.04061256349203959,true,-0.6715775779972593,0.3480810981009885,-0.042777595845421366,OneYear,false,'0.75',false,false,false,false,true,true,1,1,-0.00138579277003169,'пластик',true,true,false,Китай,'?'
false,-0.031768674919262926,true,-0.8161379907721233,0.3949846836691746,0.47253351610494887,OneYear,false,'0.7',false,false,false,false,true,true,1,1,0.3909195423048021,'пластик_стекло',true,true,false,Китай,'?'
false,-0.03280046191942021,true,0.11317894849486097,-0.14440655036496844,1.5031557400056894,OneYear,false,'1',false,false,false,false,true,true,1,1,0.129382652254913,'стекло',true,true,false,Китай,'?'
false,-0.031473878633503705,true,0.31969382388752415,-1.316996189569627,-0.042777595845421366,OneYear,false,'0.76',false,false,false,false,true,true,1,1,-0.26292268281992076,'пластик_стекло',true,true,false,Китай,'?'
false,-0.022629990060727054,false,-0.8161379907721233,0.7936651609987584,-0.9016294490960385,TwoYears,false,'0.73',false,false,false,true,true,true,15,1,0.129382652254913,'пластик_стекло_металл',true,true,false,Китай,'шумоподавление_поддержание_температуры'
false,-0.029999897204707603,true,1.2490107631545084,0.2073703413964291,0.12899277480470206,OneYear,false,'0.75',false,false,false,false,true,true,1,1,0.129382652254913,'стекло_металл',true,true,false,Китай,'?'
false,-0.03442184149109593,true,-0.6922290655365255,0.7936651609987584,-0.3863183371456682,OneYear,false,'0.75',false,false,false,true,true,true,1,1,-0.00138579277003169,'металл',true,true,false,Китай,'?'
false,-0.04267613749235414,true,-0.6922290655365255,-0.07405117201268875,-0.7642131525759402,OneYear,false,'0.75',false,false,false,false,true,true,1,1,-0.26292268281992076,'пластик',true,true,false,Китай,'?'
false,-0.030589489776226046,true,-0.6922290655365255,0.488791854805547,-0.21454796649554478,OneYear,false,'0.75',false,false,false,false,true,true,1,1,-0.00138579277003169,'пластик_стекло',true,true,false,Китай,'?'
false,-0.04061256349203959,true,-0.6715775779972593,0.3480810981009885,-0.042777595845421366,OneYear,false,'0.75',false,false,false,false,true,true,1,1,-0.00138579277003169,'пластик',true,true,false,Китай,'?'
false,-0.04821830766462751,true,-0.8161379907721233,-1.199737225649161,-1.7604813023466557,OneYear,false,'1.2',false,false,false,false,true,true,1,1,-0.00138579277003169,'пластик',true,true,false,Китай,'?'
false,-0.0381067950630862,true,-0.6096231153794601,0.5591472331578267,-0.2832561147555939,OneYear,false,'0.7',true,false,false,false,true,true,1,2,-0.00138579277003169,'сталь',true,true,false,Китай,'заваривание_чая'
false,-0.021450804917690167,true,0.009921510798529376,0.4418882692373608,1.1596149987054425,TwoYears,false,'1',false,false,false,false,true,true,1,2,-0.00138579277003169,'пластик_металл',true,true,false,Китай,'поддержание_температуры'
false,-0.03736980434868815,true,-0.7128805530757918,-1.0824782617286952,0.6443038867550723,TwoYears,false,'0.8',false,false,false,false,true,true,1,1,-0.00138579277003169,'пластик',true,true,false,Китай,'?'
false,-0.02852591577591149,true,1.2490107631545084,-0.49618344212636595,0.47253351610494887,TwoYears,false,'0.7',false,false,false,false,true,false,1,1,-0.00138579277003169,'стекло',true,false,false,Китай,'?'
false,-0.03442184149109593,true,-0.6922290655365255,0.488791854805547,0.16334684893472723,OneYear,false,'0.7',false,false,false,true,true,true,1,1,-0.00138579277003169,'металл',true,true,false,Китай,'?'
false,-0.02557795291831927,true,-0.8161379907721233,0.4418882692373608,0.30076314545482546,TwoYears,false,?,false,false,false,false,true,true,1,1,-0.00138579277003169,'стекло_металл',true,true,false,Китай,'шумоподавление'
false,-0.031768674919262926,true,-0.6096231153794601,0.488791854805547,0.23205499719477635,OneYear,false,'0.75',false,false,true,true,true,true,5,1,-0.00138579277003169,'стекло',true,true,false,Китай,'поддержание_температуры'
false,-0.036485415491410475,true,0.009921510798529376,-0.2616655142854343,0.12899277480470206,OneYear,false,'1.5',false,false,false,false,false,true,1,2,0.129382652254913,'пластик',true,true,false,Китай,'?'
false,-0.038254193205965806,true,0.21643638619119257,-0.7307013699672976,-0.9016294490960385,OneYear,false,'1',false,false,false,false,true,true,1,1,-0.00138579277003169,'пластик',true,true,false,Китай,'?'
false,-0.02852591577591149,true,0.42295126158385576,-0.7307013699672976,-0.3863183371456682,TwoYears,false,'0.8',false,false,false,false,true,true,1,1,0.3909195423048021,'стекло',true,true,false,Китай,'?'
false,-0.04061256349203959,true,-0.4444112150653295,0.16046675582824294,-0.6955050043158899,OneYear,false,'0.75',false,false,false,true,true,true,1,1,-0.00138579277003169,'металл',true,true,false,Китай,'?'
false,-0.03235826749078137,true,-0.7954865032328571,0.32462930531689493,0.23205499719477635,OneYear,false,'0.6',false,false,false,false,true,true,1,1,-0.00138579277003169,'пластик_сталь_стекло',true,true,false,Китай,'?'
false,-0.035306230348373595,true,-0.403108239986797,-0.2616655142854343,-0.21454796649554478,OneYear,false,'1.4',false,false,false,false,true,true,1,1,-0.00138579277003169,'пластик',true,true,false,Китай,'?'
false,-0.03736980434868815,true,0.009921510798529376,-0.2616655142854343,0.12899277480470206,OneYear,false,'1.5',false,false,false,false,false,true,1,2,0.129382652254913,'пластик_сталь',true,true,false,Китай,'?'
false,-0.03565998589128466,true,-0.19659336459413382,-0.49618344212636595,-0.14583981823549566,OneYear,false,'0.7',false,false,false,false,true,true,1,1,-0.1321542377949761,'пластик_сталь',true,true,false,Китай,'?'
false,-0.03736980434868815,true,0.5262086992801873,-0.6134424060468319,-0.042777595845421366,OneYear,false,'1',false,false,false,false,false,true,1,1,0.3909195423048021,'пластик_сталь',true,true,false,Китай,'?'
false,-0.029027069461702165,false,1.0218444002225786,-0.5665388204786457,0.47253351610494887,TwoYears,false,?,false,false,false,false,true,true,1,1,-0.00138579277003169,'сталь',true,true,false,Китай,'?'
true,-0.029999897204707603,true,1.0218444002225786,-0.6134424060468319,0.91913647979527,ThreeYears,false,'0.65',false,false,false,true,false,true,5,2,-0.26292268281992076,'пластик',true,true,true,Китай,'шумоподавление_поддержание_температуры'
false,-0.022629990060727054,true,0.8359810123691821,-0.2616655142854343,0.12899277480470206,OneYear,false,'1',true,false,false,true,true,true,4,1,-0.26292268281992076,'стекло',true,true,false,Китай,'поддержание_температуры_заваривание_чая'
false,-0.02675713806135616,true,-0.6096231153794601,0.32462930531689493,-0.5580887077957917,OneYear,false,'0.75',false,false,false,false,true,true,1,1,-0.00138579277003169,'сталь_стекло',true,true,false,Китай,'?'
false,-0.02705193434711538,true,0.2577393612697251,0.16046675582824294,0.06028462654465293,TwoYears,false,'0.8',false,false,true,true,true,true,1,?,-0.00138579277003169,'сталь',false,true,false,Китай,'поддержание_температуры'
false,-0.022629990060727054,true,?,?,?,OneYear,false,?,false,false,false,false,true,true,1,1,0.3909195423048021,'пластик_стекло',true,true,false,Китай,'?'
false,-0.036485415491410475,true,-0.9193954284684549,-0.027147586444502582,-0.9016294490960385,OneYear,false,'0.7',false,false,false,false,true,true,1,?,-0.00138579277003169,'стекло',true,false,false,Китай,'?'
false,-0.040317767206280365,true,0.21643638619119257,-0.6134424060468319,-2.1040220436469026,TwoYears,false,'0.7',false,false,false,true,true,true,1,1,-0.9167649079446436,'сталь',true,true,false,Китай,'?'
false,-0.03619061920565126,true,0.7327235746728505,-0.8010567483195773,-0.042777595845421366,OneYear,false,'0.72',false,true,false,true,true,true,1,1,-0.26292268281992076,'стекло',true,true,false,Китай,'?'
false,-0.032947860062299814,false,-0.5063656776831286,0.32462930531689493,0.8160742574051957,OneYear,false,'0.75',false,false,false,true,true,false,1,1,-0.00138579277003169,'пластик_сталь',true,false,false,Китай,'?'
false,-0.03442184149109593,true,-0.403108239986797,-0.027147586444502582,-1.2451701903962853,OneYear,false,'0.8',false,false,false,false,true,true,1,1,-0.00138579277003169,'сталь',true,true,false,Китай,'?'
false,-0.038548989491725034,false,0.38164828650532323,-1.2231890184332541,0.40382536784489975,OneYear,true,?,false,false,false,false,true,true,1,1,0.129382652254913,'пластик_сталь',true,true,false,Китай,'?'
false,-0.02557795291831927,true,-0.7335320406150581,0.3949846836691746,0.4381794419749237,OneYear,false,?,false,false,false,false,true,true,1,1,0.3909195423048021,'пластик_стекло',true,true,false,Китай,'?'
false,-0.03235826749078137,true,-0.7954865032328571,0.3480810981009885,0.2664090713248003,OneYear,false,'0.75',false,false,false,false,true,true,1,1,-0.00138579277003169,'сталь_стекло',true,true,false,Китай,'?'
false,-0.029115508347429934,true,0.009921510798529376,-0.2616655142854343,-0.042777595845421366,OneYear,false,'0.7',false,false,false,false,true,true,1,1,-0.00138579277003169,'стекло',true,true,false,Китай,'?'
false,-0.03339005449093865,true,0.8979354749869812,0.5356954403737332,-2.241438340167001,TwoYears,false,'0.9',false,true,false,false,true,true,1,1,-0.00138579277003169,'пластик_сталь',true,true,false,Китай,'шумоподавление'
false,-0.010838138630358178,true,1.2490107631545084,-1.199737225649161,-0.5580887077957917,OneYear,false,'1.1',true,false,true,true,true,true,4,1,-0.00138579277003169,'сталь_стекло',true,true,false,Китай,'поддержание_температуры_заваривание_чая'
false,-0.02970510091894838,true,-0.5889716278401935,0.3480810981009885,0.2664090713248003,OneYear,false,'0.65',false,false,false,false,false,true,1,1,-0.00138579277003169,'сталь_стекло',true,true,false,Китай,'поддержание_температуры'
false,-0.02705193434711538,true,0.5468601868194539,-0.9886710905923224,0.9878446280553191,OneYear,false,'0.75',false,false,true,true,true,true,3,1,-0.00138579277003169,'пластик_стекло',true,true,false,Китай,'шумоподавление_поддержание_температуры'
false,-0.04090735977779881,true,-0.8161379907721233,0.2073703413964291,0.47253351610494887,OneYear,false,'0.75',false,false,false,false,false,true,1,2,0.129382652254913,'пластик',true,true,false,Китай,'?'
false,-0.03501143406261437,true,-0.7954865032328571,0.2073703413964291,0.8160742574051957,OneYear,false,'0.75',false,false,false,false,true,true,1,2,-0.00138579277003169,'пластик_металл',true,false,false,Китай,'?'
false,-0.04061256349203959,true,-0.4444112150653295,0.16046675582824294,-0.6955050043158899,OneYear,false,'0.75',false,false,false,true,true,true,1,1,-0.00138579277003169,'металл',true,true,false,Китай,'?'
false,-0.029999897204707603,true,0.42295126158385576,-1.316996189569627,0.12899277480470206,OneYear,false,'0.75',false,false,false,false,true,true,1,?,0.129382652254913,'пластик_стекло',true,true,false,Китай,'?'
false,-0.03736980434868815,true,-0.981349891086254,0.3949846836691746,0.30076314545482546,OneYear,false,'0.65',false,false,false,false,true,true,1,2,-0.26292268281992076,'пластик_сталь',true,true,false,Китай,'?'
false,-0.042292902320867146,true,0.31969382388752415,-0.7307013699672976,-1.0733998197461618,OneYear,false,'1',false,false,false,false,false,true,1,1,-0.26292268281992076,'пластик_сталь',true,true,false,Китай,'?'
false,-0.02705193434711538,true,-0.6096231153794601,0.2073703413964291,0.12899277480470206,OneYear,false,'0.7',false,false,true,false,true,true,3,1,-0.00138579277003169,'стекло',true,true,false,Китай,'шумоподавление'
false,-0.03353745263381826,false,-0.09333592689780222,0.32462930531689493,0.5755957384950232,OneYear,false,'0.7',false,false,false,true,false,true,13,2,-0.00138579277003169,'пластик',true,true,true,Китай,'поддержание_температуры'
false,-0.03442184149109593,true,0.8359810123691821,-0.49618344212636595,-0.5580887077957917,TwoYears,false,'0.75',false,false,false,false,true,true,1,1,-0.00138579277003169,'пластик_стекло',true,true,false,Китай,'?'
false,-0.03442184149109593,true,0.009921510798529376,-0.14440655036496844,1.5031557400056894,OneYear,false,'0.75',false,false,false,false,true,true,1,1,0.129382652254913,'пластик_стекло',true,true,false,Китай,'?'
false,-0.02852591577591149,true,0.42295126158385576,-0.7307013699672976,-0.3863183371456682,TwoYears,false,'0.6',false,false,false,false,true,true,1,1,0.3909195423048021,'стекло',true,true,false,Китай,'?'
false,-0.03560102663413282,true,-0.5063656776831286,0.2073703413964291,-0.3176101888856191,OneYear,false,'0.75',false,false,false,false,true,true,1,1,-0.00138579277003169,'сталь',true,true,false,Китай,'?'
false,-0.03327213597663496,true,0.009921510798529376,-0.2616655142854343,0.12899277480470206,OneYear,false,'0.7',false,false,false,false,true,true,1,1,0.129382652254913,'стекло',true,true,false,Китай,'?'
false,-0.016734064345542612,true,0.009921510798529376,0.9109241249192241,0.8160742574051957,TwoYears,false,'0.9',false,false,true,true,true,true,6,1,-0.00138579277003169,'стекло',true,true,false,Китай,'поддержание_температуры'
false,-0.03088428606198526,true,0.44360274912312236,-1.176285432865068,0.06028462654465293,TwoYears,false,'0.7',false,false,false,false,true,false,1,1,-0.00138579277003169,'стекло',false,true,false,Китай,'?'
false,-0.03442184149109593,true,0.11317894849486097,0.6295026115101063,-2.516270933207198,OneYear,false,'1.5',false,false,false,false,true,true,1,1,-0.26292268281992076,'пластик',true,true,false,Китай,'?'
false,-0.03736980434868815,true,0.31969382388752415,-0.6134424060468319,0.8160742574051957,OneYear,false,'1',false,false,false,false,false,true,1,1,1.0447617674295249,'пластик_сталь',true,true,false,Китай,'?'
false,-0.013786101487950399,true,1.4555256385471718,0.2073703413964291,-0.21454796649554478,OneYear,false,'0.8',false,false,false,false,false,true,1,1,-0.00138579277003169,'керамика',false,true,false,Китай,'?'
false,-0.009364157201562067,false,-0.2998508022904654,0.2073703413964291,0.91913647979527,OneYear,false,'0.8',false,false,true,true,true,true,4,2,-0.26292268281992076,'пластик_сталь',true,true,false,Китай,'поддержание_температуры'
false,-0.04061256349203959,true,-0.4444112150653295,0.16046675582824294,-0.6955050043158899,OneYear,false,'0.75',false,false,false,true,true,true,1,1,-0.00138579277003169,'металл',true,true,false,Китай,'?'
false,-0.036485415491410475,true,-0.6922290655365255,0.488791854805547,-0.21454796649554478,OneYear,false,'0.75',false,false,false,false,true,true,1,1,-0.00138579277003169,'пластик_стекло',true,true,false,Китай,'?'
false,-0.029115508347429934,true,0.7327235746728505,1.2627010166806216,-2.791103526247396,OneYear,false,'0.68',false,false,false,false,true,true,1,1,0.129382652254913,'пластик_стекло_металл',true,true,false,Китай,'?'
true,-0.031473878633503705,false,0.5881631618979865,-0.8948639194559497,-0.07713166997544654,OneYear,false,'0.65',false,false,true,true,true,true,5,2,-0.00138579277003169,'пластик_сталь',true,true,false,Китай,'поддержание_температуры'
false,-0.033832248919577486,true,-0.6509260904579927,0.2073703413964291,0.47253351610494887,OneYear,false,'0.7',false,false,false,false,true,true,1,1,-0.00138579277003169,'пластик_сталь_стекло',true,true,false,Китай,'?'
false,-0.04061256349203959,true,-0.6715775779972593,0.3480810981009885,-0.042777595845421366,OneYear,false,'0.75',false,false,false,true,true,true,1,2,-0.00138579277003169,'пластик',true,true,false,Китай,'?'
false,-0.02852591577591149,true,-0.6715775779972593,0.7467615754305722,1.0565527763153684,OneYear,false,'0.7',false,false,false,false,true,true,1,?,-0.00138579277003169,'стекло_металл',true,true,false,Китай,'?'
false,-0.04090735977779881,true,0.21643638619119257,-0.7307013699672976,-0.042777595845421366,OneYear,false,'1',false,false,false,false,false,true,1,1,0.129382652254913,'пластик_сталь',true,true,false,Китай,'?'
false,-0.032947860062299814,true,0.21643638619119257,-0.14440655036496844,0.12899277480470206,OneYear,false,'0.75',false,false,false,false,true,true,1,1,-0.00138579277003169,'сталь',true,true,false,Китай,'?'
false,-0.029115508347429934,true,-0.7541835281543242,0.488791854805547,0.30076314545482546,TwoYears,false,'0.75',false,false,true,true,true,true,1,2,-0.00138579277003169,'пластик',true,true,false,Китай,'?'
false,-0.04426803743545394,true,0.2783908488089917,-0.8479603338877635,-0.21454796649554478,OneYear,false,'0.7',false,false,false,false,true,true,1,1,-0.1321542377949761,'сталь',true,true,false,Китай,'?'
false,-0.03427444334821632,true,0.42295126158385576,-0.49618344212636595,-0.9016294490960385,OneYear,false,'1',true,false,false,false,true,true,1,1,-0.9167649079446436,'стекло',true,true,false,Китай,'поддержание_температуры_заваривание_чая'
false,-0.03442184149109593,true,-1.0226528661647865,0.2073703413964291,-0.3863183371456682,OneYear,false,'0.8',false,false,false,false,true,true,1,1,-0.26292268281992076,'пластик',true,true,false,Китай,'?'
false,-0.026020147346958105,true,0.6294661369765189,-0.37892447820590014,0.47253351610494887,OneYear,false,'1',false,false,false,false,true,true,1,1,-0.00138579277003169,'стекло',true,true,false,Китай,'?'
false,-0.03259410451938875,true,-0.010729976740737236,-0.28511730706952776,0.02593055241462776,OneYear,false,'0.7',false,false,false,false,true,true,1,1,-0.1321542377949761,'стекло',true,true,false,Китай,'?'
false,-0.038254193205965806,true,-1.0226528661647865,-0.37892447820590014,-0.21454796649554478,OneYear,false,'0.75',true,false,false,false,true,true,1,?,0.129382652254913,'стекло',true,true,false,Китай,'заваривание_чая'
false,-0.040317767206280365,true,0.21643638619119257,-1.4342551534900927,-0.729859078445915,TwoYears,false,'0.8',false,false,false,true,true,true,1,1,-0.00138579277003169,'сталь',true,true,false,Китай,'?'
false,-0.029262906490309545,true,0.42295126158385576,-1.0824782617286952,-0.042777595845421366,TwoYears,false,?,false,false,false,false,true,true,1,1,-0.00138579277003169,'сталь',true,true,false,Китай,'?'
false,-0.03353745263381826,false,0.48490572420165484,-1.0355746761605091,-0.7985672267059641,OneYear,false,'0.75',false,false,false,true,true,true,5,2,-0.00138579277003169,'пластик_металл',true,true,false,Китай,'поддержание_температуры'
false,-0.03736980434868815,true,-0.2998508022904654,-0.6134424060468319,-0.5580887077957917,TwoYears,false,'0.6',false,false,false,false,true,true,1,1,-0.00138579277003169,'пластик',true,true,false,Китай,'?'
false,-0.03707500806292892,true,-0.403108239986797,-0.2616655142854343,-0.21454796649554478,OneYear,false,'0.75',false,false,false,false,true,true,1,1,0.129382652254913,'сталь',true,true,false,Китай,'поддержание_температуры'
true,-0.031473878633503705,false,0.5881631618979865,-0.8948639194559497,-0.07713166997544654,OneYear,false,'0.65',false,false,true,true,true,true,5,2,-0.00138579277003169,'пластик_сталь',true,true,false,Китай,'поддержание_температуры'
false,-0.031473878633503705,true,0.42295126158385576,-0.9652192978082293,-0.5580887077957917,OneYear,false,'0.75',false,false,false,false,true,true,1,1,-0.00138579277003169,'стекло',true,true,false,Китай,'?'
false,-0.03442184149109593,true,-0.403108239986797,-0.9652192978082293,-0.21454796649554478,TwoYears,false,'1',false,false,false,false,true,true,1,1,-0.00138579277003169,'?',true,true,false,Китай,'?'
false,-0.003910425915016461,true,1.35226820085084,0.09011137747596326,-0.21454796649554478,OneYear,false,'1',false,false,false,false,false,true,1,1,-0.26292268281992076,'керамика',true,true,false,Китай,'?'
false,-0.014965286630987288,false,0.42295126158385576,-0.6134424060468319,0.91913647979527,OneYear,false,'0.8',false,false,true,false,true,true,4,2,-0.26292268281992076,'сталь',false,true,false,Китай,'поддержание_температуры'
false,-0.031473878633503705,true,0.46425423666238824,-0.9886710905923224,0.12899277480470206,OneYear,false,'0.7',false,true,true,true,true,true,8,1,-0.00138579277003169,'сталь',true,true,false,Китай,'поддержание_температуры'
false,-0.029999897204707603,false,0.9392384500655137,0.7936651609987584,0.6443038867550723,TwoYears,false,'0.5',false,false,false,false,true,true,1,2,-0.00138579277003169,'металл',true,true,false,Китай,'?'
false,-0.038254193205965806,false,-0.8161379907721233,0.32462930531689493,-0.21454796649554478,OneYear,true,'0.8',false,false,false,true,true,true,7,1,0.129382652254913,'пластик_сталь_стекло',true,true,false,Китай,'поддержание_температуры'
false,-0.03265306377654059,false,0.6294661369765189,-0.9652192978082293,0.9878446280553191,OneYear,false,'1',false,false,true,true,false,true,5,2,-0.00138579277003169,'пластик_сталь',true,true,false,Китай,'поддержание_температуры'
false,-0.03265306377654059,false,0.6294661369765189,-0.9652192978082293,0.9878446280553191,OneYear,false,'1',false,false,true,true,false,true,5,2,-0.00138579277003169,'пластик_сталь',true,true,false,Китай,'поддержание_температуры'
false,-0.04267613749235414,false,0.8359810123691821,-0.9652192978082293,0.12899277480470206,OneYear,false,'0.8',false,true,false,false,false,true,1,1,0.129382652254913,'металл',false,false,false,Китай,'?'
false,-0.022629990060727054,false,0.42295126158385576,-0.14440655036496844,0.47253351610494887,TwoYears,false,'1',false,true,true,true,true,true,5,2,-0.26292268281992076,'пластик_стекло',true,true,false,Китай,'поддержание_температуры'
false,-0.033832248919577486,false,-0.403108239986797,0.4418882692373608,0.30076314545482546,ThreeYears,false,'0.75',false,false,false,true,true,true,6,1,-0.00138579277003169,'сталь',true,true,false,Китай,'поддержание_температуры'
false,-0.03442184149109593,true,0.21643638619119257,-0.9652192978082293,-0.5580887077957917,TwoYears,false,'1',false,false,false,true,true,true,1,1,-0.00138579277003169,'сталь',true,true,false,Китай,'?'
false,-0.04426803743545394,true,0.2783908488089917,-0.8479603338877635,-0.21454796649554478,OneYear,false,'0.7',false,false,false,false,true,true,1,1,-0.1321542377949761,'сталь',true,true,false,Китай,'?'
false,-0.03736980434868815,true,-0.2998508022904654,-0.6134424060468319,-0.5580887077957917,TwoYears,false,'0.6',false,false,false,false,true,true,1,1,-0.00138579277003169,'пластик',true,true,false,Китай,'?'
false,-0.041791748635076474,true,0.31969382388752415,-0.8479603338877635,0.47253351610494887,OneYear,false,'0.7',false,false,false,false,true,true,1,?,0.129382652254913,'пластик_сталь',true,true,false,Китай,'?'
false,-0.022629990060727054,true,0.7946780372906496,0.4418882692373608,1.0565527763153684,OneYear,false,'0.8',false,false,false,false,true,true,1,1,-0.00138579277003169,'сталь',false,false,false,Китай,'?'
false,-0.040317767206280365,true,-1.0226528661647865,0.4418882692373608,0.12899277480470206,OneYear,false,'0.75',false,false,true,false,true,true,1,1,-0.00138579277003169,'сталь',true,true,false,Китай,'?'
false,-0.03471663777685515,true,0.29904233634825755,-0.4023762709899936,2.121529074346134,TwoYears,false,'1',false,false,false,false,true,true,1,2,-0.26292268281992076,'сталь',true,true,false,Китай,'поддержание_температуры'
false,-0.041791748635076474,true,0.2783908488089917,-0.8479603338877635,-0.5580887077957917,OneYear,false,'0.7',false,false,false,false,true,true,1,1,0.129382652254913,'пластик_сталь',true,true,false,Китай,'?'
false,-0.02557795291831927,true,-0.7128805530757918,-0.8479603338877635,0.5068875902349741,OneYear,false,'0.8',true,false,true,true,true,true,4,1,-0.00138579277003169,'пластик_металл',true,true,false,Китай,'поддержание_температуры_заваривание_чая'
false,-0.021156008631930946,false,-0.2998508022904654,-0.027147586444502582,0.12899277480470206,TwoYears,false,'1.1',true,false,true,true,true,true,6,2,-0.26292268281992076,'пластик_стекло',true,true,false,Китай,'поддержание_температуры_заваривание_чая'
false,-0.03619061920565126,true,-0.403108239986797,0.3715328908850811,0.6443038867550723,OneYear,false,'0.75',false,false,false,true,true,true,1,2,-0.00138579277003169,'сталь',true,true,false,Китай,'?'
false,-0.031473878633503705,true,?,?,?,TwoYears,false,'0.7',false,false,false,false,true,true,1,1,-0.00138579277003169,'пластик',true,true,false,Китай,'?'
false,-0.040317767206280365,true,-0.19659336459413382,-0.49618344212636595,-0.21454796649554478,OneYear,false,'0.75',false,false,false,false,true,true,1,1,0.3909195423048021,'металл',true,true,false,Китай,'?'
false,-0.05520497963712107,true,-1.3737281543323139,-1.4342551534900927,-3.890433898408186,OneYear,false,'0.7',false,false,false,false,true,true,1,1,-1.5706071330693665,'пластик',true,true,false,Россия,'?'
false,-0.022629990060727054,true,0.8359810123691821,-0.14440655036496844,1.1596149987054425,TwoYears,false,'0.9',false,false,false,true,true,true,1,2,-0.00138579277003169,'пластик_сталь',true,true,false,Китай,'поддержание_температуры'
false,-0.03265306377654059,false,0.6294661369765189,-0.9652192978082293,0.9878446280553191,OneYear,false,'1',false,false,true,true,false,true,5,2,-0.00138579277003169,'пластик_сталь',true,true,false,Китай,'поддержание_температуры'
true,-0.031473878633503705,false,0.5881631618979865,-0.8948639194559497,-0.07713166997544654,OneYear,false,'0.65',false,false,true,true,true,true,5,2,-0.00138579277003169,'пластик_сталь',true,true,false,Китай,'поддержание_температуры'
false,-0.03442184149109593,true,-0.4237597275260636,-0.050599379228596086,1.6405720365257876,TwoYears,false,'0.75',false,false,false,false,true,true,1,1,-0.00138579277003169,'пластик',true,true,false,Китай,'шумоподавление'
false,-0.03206347120502215,false,-0.8161379907721233,-0.37892447820590014,-0.042777595845421366,OneYear,false,'0.73',false,false,false,false,true,true,1,1,-0.00138579277003169,'стекло',true,true,false,Китай,'?'
false,-0.033832248919577486,false,-0.403108239986797,0.4418882692373608,0.30076314545482546,ThreeYears,false,'0.75',false,false,true,false,true,true,1,1,-0.00138579277003169,'сталь',true,true,false,Китай,'?'
false,-0.03353745263381826,true,0.21643638619119257,-0.027147586444502582,0.30076314545482546,OneYear,false,'0.7',false,false,false,false,true,true,1,1,0.129382652254913,'стекло',true,true,false,Китай,'?'
false,-0.026167545489837716,false,0.6294661369765189,-1.199737225649161,-0.5580887077957917,OneYear,false,'0.71',false,false,false,false,true,true,1,1,-0.00138579277003169,'пластик_металл',true,true,false,Китай,'?'
false,-0.03442184149109593,true,-0.403108239986797,0.3715328908850811,0.6443038867550723,OneYear,false,'0.75',false,false,false,true,true,true,1,2,-0.00138579277003169,'пластик_металл',true,true,false,Китай,'поддержание_температуры'
false,-0.033242656348059035,true,1.35226820085084,0.30117751253280145,-2.6536872297272973,OneYear,false,'0.7',false,false,true,true,false,true,4,1,-0.00138579277003169,'пластик_сталь',true,false,false,Китай,'поддержание_температуры'
false,-0.03353745263381826,true,0.21643638619119257,-0.027147586444502582,0.30076314545482546,OneYear,false,'0.7',false,false,false,false,true,true,1,1,0.129382652254913,'стекло',true,true,false,Китай,'?'
false,-0.038725867263180565,true,0.42295126158385576,-0.6134424060468319,0.5755957384950232,OneYear,false,'0.7',false,false,false,false,true,true,1,1,-0.1321542377949761,'пластик_сталь',true,true,false,Китай,'?'
false,-0.03265306377654059,false,0.6294661369765189,-0.9652192978082293,0.9878446280553191,OneYear,false,'1',false,false,true,true,false,true,5,2,-0.00138579277003169,'пластик_сталь',true,true,false,Китай,'поддержание_температуры'
false,-0.036780211777169704,false,0.8359810123691821,-0.9652192978082293,-0.5580887077957917,OneYear,false,'0.8',false,false,false,false,true,true,1,1,0.129382652254913,'пластик_стекло',false,false,false,Китай,'?'
false,-0.03442184149109593,true,-0.8574409658506559,0.06665958469186976,-0.729859078445915,OneYear,false,'0.7',false,false,false,true,true,true,1,1,-0.00138579277003169,'пластик',true,true,false,Китай,'?'
false,-0.03471663777685515,false,0.11317894849486097,-0.14440655036496844,0.12899277480470206,OneYear,false,'1',false,false,false,false,false,false,1,?,0.129382652254913,'пластик_стекло',true,true,false,Китай,'?'
false,-0.02705193434711538,false,1.0837988628403779,-0.7307013699672976,0.30076314545482546,OneYear,false,'0.8',false,false,false,false,true,true,1,1,-0.00138579277003169,'пластик_стекло',true,true,false,Китай,'?'
false,-0.03442184149109593,false,-0.7128805530757918,0.32462930531689493,-0.45502648540571733,OneYear,false,'0.75',false,false,false,false,true,true,1,2,-0.00138579277003169,'сталь',true,false,false,Китай,'?'
false,-0.041791748635076474,true,0.31969382388752415,-0.8479603338877635,0.6443038867550723,OneYear,false,'0.7',false,false,false,false,true,true,1,2,0.129382652254913,'пластик_сталь',true,true,false,Китай,'?'
false,-0.031473878633503705,false,0.6707691120550514,-0.9652192978082293,1.0909068504453934,OneYear,false,'0.7',false,false,false,false,true,true,1,2,-0.00138579277003169,'сталь',false,true,false,Китай,'?'
false,-0.03471663777685515,true,0.009921510798529376,-0.2616655142854343,0.12899277480470206,OneYear,false,'1',false,false,false,false,true,false,1,1,0.129382652254913,'пластик_стекло',true,true,false,Китай,'?'
false,-0.024988360346800825,false,0.7120720871335839,0.6295026115101063,0.7130120350151214,OneYear,false,'0.7',false,false,false,true,false,true,4,1,-0.00138579277003169,'пластик_сталь_стекло',true,true,false,Китай,'поддержание_температуры'
false,-0.033832248919577486,false,0.8359810123691821,0.4418882692373608,-1.5887109316965322,TwoYears,false,'0.73',true,true,false,true,true,true,15,1,0.129382652254913,'сталь',true,true,false,Китай,'шумоподавление_поддержание_температуры_заваривание_чая'
false,-0.040317767206280365,false,-0.8161379907721233,0.4418882692373608,-0.9016294490960385,OneYear,false,'0.8',false,false,false,false,false,true,1,1,-0.26292268281992076,'металл',true,true,false,Китай,'?'
false,-0.03442184149109593,true,0.21643638619119257,-0.37892447820590014,0.12899277480470206,TwoYears,false,'0.8',false,false,false,false,true,true,1,1,-0.00138579277003169,'стекло',true,false,false,Китай,'?'
false,-0.045329304064187136,true,-0.6509260904579927,0.4418882692373608,0.12899277480470206,OneYear,false,?,false,false,false,false,false,true,1,1,0.129382652254913,'сталь',true,true,false,Китай,'?'
false,-0.013786101487950399,false,1.0631473753011118,0.04320779190777709,1.2283231469654916,ThreeYears,false,'0.7',false,false,false,true,true,true,1,?,-0.26292268281992076,'металл',false,false,false,Китай,'?'
false,-0.036426456234258636,true,-0.09333592689780222,-0.37892447820590014,-0.3863183371456682,OneYear,false,'0.5',false,false,false,false,false,true,1,2,0.129382652254913,'пластик_сталь',true,true,false,Китай,'?'
false,-0.03442184149109593,false,0.42295126158385576,0.4418882692373608,-0.9016294490960385,OneYear,false,'0.7',false,false,true,false,true,true,1,2,-0.00138579277003169,'пластик_сталь',true,true,false,Китай,'поддержание_температуры'
false,-0.02852591577591149,false,0.5262086992801873,1.309604602248808,-2.859811674507445,OneYear,false,'0.7',false,false,true,true,true,true,5,2,-0.00138579277003169,'пластик_сталь',true,true,false,Китай,'поддержание_температуры'
false,-0.03265306377654059,false,-0.7128805530757918,0.32462930531689493,0.5068875902349741,ThreeYears,false,'0.7',false,false,true,true,true,true,7,2,-0.26292268281992076,'пластик_сталь',true,true,true,Китай,'поддержание_температуры'
false,-0.027936323204393047,false,-0.9297211722380883,0.488791854805547,0.7061412201891166,TwoYears,false,'0.7',false,false,true,true,true,true,13,1,-0.00138579277003169,'пластик_стекло',true,true,false,Китай,'поддержание_температуры'
false,-0.007300583201247519,false,-0.6922290655365255,1.0985384671919698,0.02593055241462776,OneYear,false,'0.7',false,false,false,false,false,true,1,1,-0.9167649079446436,'керамика',true,true,false,Китай,'?'
false,-0.03795939692020659,true,-0.403108239986797,-0.7307013699672976,-0.21454796649554478,OneYear,false,'0.6',false,false,false,false,true,true,1,1,0.129382652254913,'сталь',true,true,false,Китай,'?'
false,-0.03442184149109593,false,0.5262086992801873,-0.6134424060468319,0.8160742574051957,TwoYears,false,'1',false,true,true,true,true,true,5,2,-0.00138579277003169,'пластик_сталь',true,true,false,Китай,'поддержание_температуры'
false,-0.019682027203134833,true,0.6294661369765189,-1.199737225649161,1.5031557400056894,OneYear,false,'0.95',false,false,false,false,true,true,1,1,-0.00138579277003169,'сталь',true,true,false,Китай,'?'
false,-0.029999897204707603,true,-0.8161379907721233,0.2073703413964291,0.12899277480470206,OneYear,false,'0.75',false,false,false,false,true,true,1,?,0.129382652254913,'стекло',true,true,false,Китай,'?'
false,-0.03619061920565126,false,-0.6922290655365255,0.5591472331578267,0.12899277480470206,OneYear,false,'0.7',false,false,false,false,false,true,1,1,-0.00138579277003169,'сталь',true,true,false,Китай,'?'
false,-0.021156008631930946,false,-0.8161379907721233,-1.199737225649161,0.12899277480470206,OneYear,false,'0.75',false,false,false,true,true,true,7,1,-0.00138579277003169,'пластик_стекло',true,true,false,Китай,'?'
false,-0.031473878633503705,false,0.6707691120550514,-0.9652192978082293,1.0909068504453934,OneYear,false,'0.8',false,false,false,false,true,true,1,2,-0.00138579277003169,'сталь',false,true,false,Китай,'?'
true,-0.031473878633503705,false,0.5881631618979865,-0.8948639194559497,-0.07713166997544654,OneYear,false,'0.65',false,false,true,true,true,true,5,2,-0.00138579277003169,'пластик_сталь',true,true,false,Китай,'поддержание_температуры'
false,-0.029999897204707603,false,-0.6509260904579927,0.488791854805547,0.09463870067467688,ThreeYears,false,'0.7',false,false,true,false,true,true,5,1,-0.00138579277003169,'сталь_стекло',true,true,false,Китай,'поддержание_температуры'
false,-0.038548989491725034,true,1.4555256385471718,0.5591472331578267,-2.791103526247396,OneYear,false,'0.7',false,false,false,true,true,true,1,?,-0.00138579277003169,'сталь',true,false,false,Китай,'?'
false,-0.030589489776226046,true,0.46425423666238824,0.019755999123683587,1.400093517615615,TwoYears,false,'1.2',false,false,false,false,true,true,1,1,-0.00138579277003169,'пластик',true,false,false,Китай,'?'
false,-0.04090735977779881,false,-0.6096231153794601,0.6764061970782925,-1.0733998197461618,OneYear,false,'0.7',false,false,false,false,true,true,1,?,-0.6552280178947545,'стекло',true,false,false,Китай,'?'
false,-0.03442184149109593,false,-0.7748350156935908,0.9578277104874103,-0.3863183371456682,OneYear,false,'0.7',false,false,false,false,false,true,1,1,-0.00138579277003169,'пластик_сталь',true,true,false,Китай,'?'
false,-0.04326573006387258,false,-1.642197492342776,-0.8479603338877635,-2.2757924142970256,ThreeYears,false,'0.75',false,true,false,false,true,true,1,1,-1.5706071330693665,'пластик_металл',false,false,false,Китай,'?'
false,-0.03736980434868815,false,-0.8161379907721233,0.25427392696461526,0.12899277480470206,OneYear,false,'0.7',false,true,false,false,true,true,1,1,-0.00138579277003169,'пластик',true,true,false,Китай,'?'
false,-0.03206347120502215,true,-0.09333592689780222,0.3715328908850811,-0.6955050043158899,OneYear,false,'0.75',false,false,false,false,true,true,1,1,-0.00138579277003169,'пластик',true,true,false,Китай,'?'
false,-0.03353745263381826,false,-0.7954865032328571,0.3480810981009885,0.2664090713248003,TwoYears,false,'0.7',false,false,false,false,true,true,1,1,0.129382652254913,'пластик_стекло_металл',false,true,false,Китай,'?'
false,-0.02852591577591149,false,0.6294661369765189,0.4418882692373608,2.53377796390643,OneYear,false,'1',false,true,false,false,true,true,1,1,-0.00138579277003169,'пластик_металл',true,true,false,Китай,'?'
true,-0.031473878633503705,false,-0.7128805530757918,-0.027147586444502582,-0.3863183371456682,OneYear,false,'0.75',false,false,true,true,true,true,5,2,0.3909195423048021,'пластик_стекло',true,true,true,Китай,'поддержание_температуры'
false,-0.03442184149109593,true,0.009921510798529376,-0.2616655142854343,-0.9016294490960385,TwoYears,false,'0.8',false,false,false,true,true,true,1,1,-0.00138579277003169,'сталь',true,true,false,Китай,'?'
false,-0.013786101487950399,true,1.4555256385471718,5.83580060957879,-0.9016294490960385,OneYear,false,'0.7',true,false,false,false,false,true,1,1,0.3909195423048021,'пластик_стекло',true,true,false,Китай,'поддержание_температуры_заваривание_чая'
false,-0.033242656348059035,false,-0.7128805530757918,0.3480810981009885,0.8847824056652449,OneYear,false,'0.6',false,false,true,true,false,true,5,2,-0.00138579277003169,'пластик_сталь',true,true,false,Китай,'поддержание_температуры'
false,-0.02587274920407849,false,-0.4237597275260636,0.3715328908850811,1.3657394434855912,OneYear,false,'0.7',false,false,true,true,false,true,7,1,-0.00138579277003169,'пластик_стекло',true,true,false,Китай,'поддержание_температуры'
false,-0.02961666203322061,true,0.6294661369765189,-0.7307013699672976,0.6443038867550723,OneYear,false,'1',false,false,false,false,true,true,1,2,0.129382652254913,'пластик_сталь',true,true,false,Китай,'?'
false,-0.02852591577591149,false,-0.19659336459413382,0.2073703413964291,0.7473661091451466,OneYear,false,'0.75',false,true,false,false,true,true,5,2,-0.00138579277003169,'пластик_стекло',true,true,false,Китай,'поддержание_температуры'
false,-0.022629990060727054,true,0.5262086992801873,-0.6134424060468319,0.6443038867550723,TwoYears,false,'0.8',true,false,true,true,false,true,5,2,-0.00138579277003169,'пластик_сталь',true,true,false,Китай,'шумоподавление_поддержание_температуры_заваривание_чая'
false,-0.03442184149109593,true,0.11317894849486097,-0.6134424060468319,-0.729859078445915,TwoYears,false,'0.8',false,false,false,false,true,true,1,1,-0.00138579277003169,'пластик_металл',false,false,false,Китай,'?'
false,-0.040317767206280365,true,?,?,?,OneYear,false,'0.72',false,false,false,true,true,true,1,1,-0.00138579277003169,'сталь',true,true,false,Китай,'?'
false,-0.03442184149109593,true,-0.6922290655365255,0.6060508187260129,0.47253351610494887,OneYear,false,'0.75',false,false,true,true,true,true,1,1,-0.00138579277003169,'сталь',true,true,false,Китай,'?'
false,-0.03913858206324348,false,0.009921510798529376,-0.2616655142854343,0.12899277480470206,OneYear,false,'0.75',false,false,false,false,true,true,1,?,0.129382652254913,'сталь_стекло',true,true,false,Китай,'?'
false,-0.029999897204707603,false,1.6000860513220356,-0.9652192978082293,1.0565527763153684,OneYear,false,'0.7',false,true,true,true,true,true,7,2,-0.00138579277003169,'пластик_металл',true,true,false,Китай,'поддержание_температуры'
false,-0.02852591577591149,false,-0.5476686527616611,0.32462930531689493,0.40382536784489975,OneYear,false,'0.7',false,false,false,false,true,true,1,2,-0.00138579277003169,'пластик_сталь',true,true,false,Китай,'?'
false,0.011271582801583455,true,0.42295126158385576,5.83580060957879,0.8160742574051957,OneYear,false,'0.7',true,false,true,true,false,true,2,1,0.3909195423048021,'пластик_стекло',true,true,false,Китай,'поддержание_температуры_заваривание_чая'
false,-0.02852591577591149,false,0.5262086992801873,1.309604602248808,-2.859811674507445,OneYear,false,'0.7',false,false,true,true,true,true,5,2,-0.00138579277003169,'пластик_сталь',true,true,false,Китай,'поддержание_температуры'
false,-0.02705193434711538,false,-0.7128805530757918,0.699857989862386,0.8504283315352209,OneYear,false,'0.7',true,false,true,true,true,true,5,1,-0.00138579277003169,'пластик_сталь_стекло',true,true,false,Китай,'шумоподавление_поддержание_температуры_заваривание_чая'
false,-0.040317767206280365,true,-0.6509260904579927,0.6764061970782925,-0.042777595845421366,OneYear,false,'0.65',false,false,false,false,true,true,1,1,-0.00138579277003169,'пластик',false,false,false,Китай,'?'
false,-0.031473878633503705,true,-0.8161379907721233,0.9109241249192241,-0.21454796649554478,OneYear,false,'0.8',false,false,false,false,true,true,1,1,-0.26292268281992076,'сталь',true,true,false,Китай,'шумоподавление'
false,-0.03442184149109593,false,0.2577393612697251,-1.2935443967855338,-1.0046916714861127,OneYear,false,'0.72',false,false,false,false,true,true,1,2,-0.9167649079446436,'пластик_сталь',true,false,false,Китай,'?'
false,-0.03442184149109593,false,-0.6922290655365255,0.6060508187260129,0.47253351610494887,OneYear,false,'0.75',false,false,true,true,true,true,1,1,-0.00138579277003169,'сталь',true,true,false,Китай,'?'
false,-0.02852591577591149,true,-0.8161379907721233,0.3480810981009885,1.331385369355566,OneYear,false,'0.8',false,true,false,false,true,true,1,1,-0.00138579277003169,'сталь',true,true,false,Китай,'поддержание_температуры'
true,-0.031473878633503705,false,0.5881631618979865,-0.8948639194559497,-0.07713166997544654,OneYear,false,'0.65',false,false,true,true,true,true,5,2,-0.00138579277003169,'пластик_сталь',true,true,false,Китай,'поддержание_температуры'
false,-0.03442184149109593,false,0.2577393612697251,-1.2935443967855338,-1.0046916714861127,OneYear,false,'0.72',false,false,false,false,true,true,1,2,-0.9167649079446436,'пластик_сталь',true,false,false,Китай,'?'
false,-0.02852591577591149,true,?,?,?,OneYear,false,?,false,false,false,true,true,true,7,2,-0.26292268281992076,'пластик_сталь',true,true,false,Китай,'поддержание_температуры'
false,-0.022629990060727054,true,0.21643638619119257,-0.027147586444502582,-1.0733998197461618,TwoYears,false,'0.8',false,false,false,false,true,true,1,1,-0.00138579277003169,'пластик_стекло',true,true,false,Китай,'?'
false,-0.031473878633503705,false,-0.9193954284684549,-0.49618344212636595,-0.3863183371456682,OneYear,false,'0.75',false,false,false,false,true,true,1,1,0.129382652254913,'стекло',true,true,false,Китай,'?'
false,-0.02852591577591149,false,-0.5476686527616611,0.32462930531689493,0.40382536784489975,OneYear,false,'0.7',false,false,false,false,true,true,1,2,-0.00138579277003169,'пластик_сталь',true,true,false,Китай,'?'
false,-0.02852591577591149,true,?,?,?,OneYear,false,?,false,false,false,true,true,true,7,2,-0.26292268281992076,'пластик_сталь',true,true,false,Китай,'поддержание_температуры'
false,-0.027936323204393047,true,-0.6096231153794601,-0.9652192978082293,0.47253351610494887,OneYear,false,'0.8',false,false,true,true,true,true,6,2,-0.00138579277003169,'пластик_сталь',true,true,false,Китай,'поддержание_температуры'
false,-0.031473878633503705,true,1.4142226634686392,0.488791854805547,0.7473661091451466,OneYear,false,'0.8',false,false,false,false,true,true,1,1,-0.00138579277003169,'сталь',true,true,false,Китай,'?'
false,-0.02675713806135616,false,0.46425423666238824,-0.49618344212636595,0.12899277480470206,OneYear,false,'0.65',false,false,false,false,true,true,1,1,-0.00138579277003169,'пластик_сталь_стекло',true,false,false,Китай,'?'
false,-0.040317767206280365,true,0.11317894849486097,-0.14440655036496844,-0.5580887077957917,TwoYears,false,'0.8',false,false,false,true,true,true,1,1,-0.00138579277003169,'сталь',true,true,false,Китай,'?'
false,-0.040317767206280365,true,?,?,?,OneYear,false,'0.78',false,false,false,false,true,true,1,1,-0.00138579277003169,'пластик_сталь',true,true,false,Китай,'?'
false,-0.031473878633503705,false,-0.6509260904579927,0.3480810981009885,0.12899277480470206,OneYear,false,'0.7',false,false,true,true,false,true,7,1,-0.00138579277003169,'пластик_сталь_стекло',true,true,false,Китай,'поддержание_температуры'
false,-0.040317767206280365,false,-0.07268443935853561,-0.49618344212636595,-0.21454796649554478,OneYear,false,'0.7',false,false,false,false,false,false,1,1,0.3909195423048021,'пластик_металл',false,false,false,Китай,'?'
false,-0.03442184149109593,true,0.11317894849486097,-0.6134424060468319,-0.3863183371456682,TwoYears,false,'0.7',false,false,true,false,true,true,1,1,-0.00138579277003169,'пластик',true,true,false,Китай,'?'
false,-0.031473878633503705,true,-0.8161379907721233,0.4418882692373608,-0.042777595845421366,TwoYears,false,'0.75',false,false,false,true,true,true,1,2,-0.00138579277003169,'пластик',true,false,false,Китай,'?'
false,0.04104600766326487,false,1.6620405139398349,5.484023717817392,0.5755957384950232,OneYear,false,'0.7',true,false,false,true,true,true,1,1,-0.00138579277003169,'пластик_сталь_стекло',true,true,false,Китай,'поддержание_температуры_заваривание_чая'
false,-0.02852591577591149,false,1.2490107631545084,0.6764061970782925,0.8160742574051957,OneYear,false,'0.8',false,false,false,false,true,false,1,1,-0.00138579277003169,'пластик',true,true,false,Китай,'?'
false,-0.03442184149109593,true,-0.7748350156935908,-0.027147586444502582,-1.2451701903962853,OneYear,false,'1',false,false,false,false,true,true,1,1,-1.1783017979945327,'пластик',true,true,false,Китай,'?'
false,-0.0462136929214648,true,-0.5063656776831286,0.2073703413964291,0.47253351610494887,OneYear,false,'0.7',false,false,false,false,true,true,1,1,0.6524564323546914,'пластик',true,true,false,Китай,'?'
false,-0.05800554435183368,true,-1.3737281543323139,-1.8329356308196765,-3.3064146381977664,OneYear,false,'0.7',false,false,false,false,true,true,1,1,-1.5706071330693665,'пластик',true,false,false,Китай,'?'
false,-0.03088428606198526,true,-0.6509260904579927,0.488791854805547,0.3694712937148746,OneYear,false,'0.7',false,false,false,false,true,true,1,1,-0.00138579277003169,'сталь_стекло',true,true,false,Китай,'?'
false,-0.022629990060727054,true,-0.2998508022904654,0.5356954403737332,0.4381794419749237,OneYear,false,'0.8',false,false,false,false,true,false,1,1,-0.00138579277003169,'сталь',true,true,false,Китай,'?'
false,-0.03766460063444736,true,0.21643638619119257,-0.49618344212636595,-0.5580887077957917,OneYear,false,'1',false,false,false,false,true,true,1,2,-0.1321542377949761,'пластик_сталь',true,true,false,Китай,'?'
false,-0.03442184149109593,true,0.6294661369765189,-0.14440655036496844,-1.4169405610464088,TwoYears,false,'0.8',false,false,false,true,true,true,1,1,-0.00138579277003169,'пластик',true,true,false,Китай,'?'
false,-0.03442184149109593,true,0.5262086992801873,-0.6134424060468319,-0.3863183371456682,TwoYears,false,'0.8',false,false,false,true,true,true,1,1,-0.00138579277003169,'сталь',true,true,false,Китай,'?'
false,-0.03442184149109593,true,0.8359810123691821,-1.1059300545127884,-0.6267968560558408,OneYear,false,'0.75',false,false,true,false,true,true,1,1,-0.00138579277003169,'металл',true,true,false,Китай,'?'
false,-0.03736980434868815,false,0.691420599594318,-0.9652192978082293,-0.3863183371456682,OneYear,false,'0.7',false,false,false,false,true,true,1,1,-0.00138579277003169,'металл',true,true,false,Китай,'?'
false,0.03898243366295032,false,1.6620405139398349,5.484023717817392,0.5755957384950232,OneYear,false,'0.7',true,false,false,true,true,true,1,1,-0.00138579277003169,'пластик_сталь_стекло',true,true,false,Китай,'поддержание_температуры_заваривание_чая'
false,-0.03943337834900269,true,-0.7128805530757918,0.2073703413964291,-0.21454796649554478,OneYear,false,'0.75',false,false,false,false,true,true,1,?,-0.00138579277003169,'пластик',true,true,false,Китай,'?'
false,-0.03442184149109593,false,-0.7335320406150581,0.5825990259419201,0.541241664364998,OneYear,false,'0.7',false,true,false,false,true,true,1,1,-0.00138579277003169,'пластик_металл',true,true,false,Китай,'?'
false,-0.002878638914859194,false,1.35226820085084,0.32462930531689493,-0.042777595845421366,OneYear,false,'1',false,false,false,false,false,true,1,?,-0.26292268281992076,'керамика',true,true,false,Китай,'?'
false,-0.03442184149109593,false,0.5468601868194539,-0.49618344212636595,0.541241664364998,OneYear,false,'1',false,false,false,true,false,true,13,1,-0.00138579277003169,'пластик',true,true,false,Китай,'поддержание_температуры'
false,-0.030294693490466824,true,0.7533750622121171,-0.5430870276945522,0.8847824056652449,TwoYears,false,'1.2',false,false,false,false,true,true,1,1,-0.5898437953822822,'металл',true,true,false,Китай,'?'
false,-0.03206347120502215,false,-0.19659336459413382,0.6764061970782925,-0.9016294490960385,TwoYears,false,'0.7',false,false,false,false,true,true,1,1,-0.00138579277003169,'пластик',true,true,false,Китай,'?'
false,-0.04267613749235414,false,0.8359810123691821,-0.9652192978082293,0.12899277480470206,OneYear,false,'0.8',false,true,false,false,false,true,1,1,0.129382652254913,'металл',false,false,false,Китай,'?'
false,-0.032947860062299814,true,-0.7128805530757918,0.2777257197487088,0.23205499719477635,OneYear,false,'0.6',false,false,false,false,true,true,1,1,-0.00138579277003169,'пластик_сталь_стекло',true,true,false,Китай,'?'
false,-0.03442184149109593,false,-0.7748350156935908,0.9578277104874103,-0.3863183371456682,OneYear,false,'0.7',false,false,false,false,false,true,1,1,-0.00138579277003169,'пластик_сталь',true,true,false,Китай,'?'
false,-0.022629990060727054,true,0.6294661369765189,-0.49618344212636595,0.47253351610494887,OneYear,false,?,false,false,false,false,true,true,1,1,-0.00138579277003169,'пластик_сталь',true,true,false,Китай,'?'
false,-0.02823111949015227,false,0.5468601868194539,2.43529065588528,-0.45502648540571733,OneYear,false,'0.7',false,false,true,true,false,true,11,1,-1.1783017979945327,'сталь_стекло',true,true,true,Китай,'поддержание_температуры'
false,-0.02705193434711538,false,1.0837988628403779,-0.7307013699672976,0.30076314545482546,OneYear,false,'0.8',false,false,false,false,true,true,1,1,-0.00138579277003169,'пластик_стекло',true,true,false,Китай,'?'
false,-0.03884378577748425,true,0.42295126158385576,-1.0824782617286952,-0.21454796649554478,OneYear,false,'0.75',false,false,false,false,false,false,1,1,0.129382652254913,'сталь',true,true,false,Китай,'?'
false,-0.04556514109279452,false,-1.0123271223951533,-0.027147586444502582,-1.482213301893456,TwoYears,false,'0.7',false,false,false,false,true,true,1,1,-0.9167649079446436,'пластик',false,true,false,Китай,'?'
false,-0.03412704520533671,false,-0.5063656776831286,0.4418882692373608,-0.5580887077957917,OneYear,false,'0.75',false,false,false,false,true,true,1,1,0.129382652254913,'пластик_сталь_стекло',true,false,false,Китай,'?'
false,-0.03353745263381826,false,1.6620405139398349,-0.9652192978082293,-2.6193331555972725,OneYear,false,'0.7',false,false,false,false,false,true,1,1,-0.00138579277003169,'сталь',true,false,false,Китай,'?'
false,-0.03913858206324348,false,-0.6509260904579927,0.32462930531689493,0.16334684893472723,OneYear,false,'0.7',false,false,false,false,true,true,1,2,-0.00138579277003169,'пластик_сталь',true,true,false,Китай,'?'
false,-0.013786101487950399,true,?,?,?,OneYear,false,?,false,false,false,false,false,true,1,1,-0.00138579277003169,'керамика',true,true,false,Китай,'?'
false,-0.03353745263381826,false,-0.6096231153794601,1.2861528094647152,0.8160742574051957,OneYear,false,'0.6',false,false,true,true,false,true,5,2,-0.00138579277003169,'пластик_сталь',true,true,false,Китай,'поддержание_температуры'
false,0.014514341944934905,true,1.0424958877618453,6.0703185374197215,0.8160742574051957,OneYear,false,'0.7',true,false,false,true,false,true,6,1,-0.00138579277003169,'пластик_стекло',true,true,false,Китай,'поддержание_температуры_заваривание_чая'
false,-0.040317767206280365,true,0.4022997740445891,-1.2700926040014406,0.47253351610494887,OneYear,false,'0.75',false,false,false,false,true,true,1,1,0.129382652254913,'пластик_сталь',true,true,false,Китай,'?'
false,-0.029999897204707603,false,-0.7954865032328571,0.2073703413964291,1.4344475917456403,OneYear,false,'0.6',false,false,true,false,true,true,4,2,-0.00138579277003169,'пластик_сталь',true,true,false,Китай,'поддержание_температуры'
false,-0.013786101487950399,false,0.21643638619119257,0.4418882692373608,0.8160742574051957,OneYear,false,'0.8',true,false,true,true,true,true,1,1,-0.1321542377949761,'стекло_металл',true,true,true,Китай,'поддержание_температуры_заваривание_чая'
false,-0.02705193434711538,true,-0.403108239986797,0.6764061970782925,0.47253351610494887,OneYear,false,'0.7',false,false,true,false,true,true,1,2,-0.26292268281992076,'пластик_сталь',true,true,false,Китай,'?'
false,-0.03412704520533671,false,-0.5063656776831286,0.4418882692373608,-0.5580887077957917,OneYear,false,'0.75',false,false,false,false,true,true,1,1,0.129382652254913,'пластик_сталь_стекло',true,false,false,Китай,'?'
false,-0.03442184149109593,true,-0.5889716278401935,0.4653400620214543,0.30076314545482546,OneYear,false,'0.6',false,false,false,false,true,true,1,1,0.3909195423048021,'пластик_стекло',true,false,false,Китай,'?'
false,-0.02852591577591149,true,0.009921510798529376,-0.7307013699672976,-0.5580887077957917,OneYear,false,'0.7',false,false,false,false,false,true,1,2,0.3909195423048021,'пластик_сталь',true,false,false,Китай,'?'
false,-0.027936323204393047,false,-0.723206296845425,0.488791854805547,0.7061412201891166,TwoYears,false,'0.7',false,false,true,true,true,true,13,1,-0.00138579277003169,'пластик_стекло',true,true,false,Китай,'поддержание_температуры'
false,-0.03736980434868815,false,0.009921510798529376,0.6764061970782925,-2.2757924142970256,OneYear,false,'0.75',false,false,false,false,true,true,1,1,-0.00138579277003169,'пластик',true,true,false,Китай,'?'
false,-0.024693564061041604,false,-0.2998508022904654,1.0281830888396901,1.331385369355566,OneYear,false,'0.8',false,false,false,false,true,true,1,1,1.6986039925542478,'пластик_сталь_стекло',true,true,false,Китай,'поддержание_температуры'
false,-0.03442184149109593,false,0.42295126158385576,0.4418882692373608,-0.9016294490960385,OneYear,false,'0.7',false,false,true,false,true,true,1,2,-0.00138579277003169,'пластик_сталь',true,true,false,Китай,'поддержание_температуры'
false,-0.004942212915173742,false,0.5262086992801873,-0.9652192978082293,1.0221987021853443,OneYear,false,'0.75',true,false,true,true,false,true,6,2,1.3062986574794142,'пластик_сталь_стекло',false,true,false,Китай,'шумоподавление_поддержание_температуры_заваривание_чая'
false,-0.03884378577748425,false,-0.8161379907721233,0.5591472331578267,0.47253351610494887,OneYear,false,'1',false,false,false,false,true,true,1,1,-0.00138579277003169,'пластик_металл',false,true,false,Китай,'?'
false,-0.032947860062299814,true,-0.6509260904579927,0.3480810981009885,0.19770092306475118,TwoYears,false,'0.7',false,false,false,false,true,true,1,1,-0.00138579277003169,'пластик_стекло',true,false,false,Китай,'?'
false,-0.02557795291831927,false,-0.7748350156935908,0.25427392696461526,0.5068875902349741,TwoYears,false,?,false,false,false,false,true,true,1,1,-0.00138579277003169,'пластик_стекло',true,true,false,Китай,'?'
false,-0.038548989491725034,false,0.21643638619119257,-0.9652192978082293,-2.6193331555972725,OneYear,false,'0.6',false,false,true,false,true,true,1,1,0.129382652254913,'металл',true,true,false,Китай,'?'
false,-0.02852591577591149,false,0.5262086992801873,-1.0355746761605091,0.953490553925294,OneYear,false,'0.7',false,false,false,false,false,true,1,1,-0.26292268281992076,'пластик_металл',true,true,false,Китай,'?'
false,-0.03604322106277165,false,-1.0020013786255202,0.5825990259419201,0.06028462654465293,ThreeYears,false,'0.7',false,false,true,true,true,true,5,1,-0.00138579277003169,'сталь',true,true,false,Китай,'поддержание_температуры'
false,-0.03480507666258291,true,-0.2998508022904654,-0.027147586444502582,-1.0733998197461618,OneYear,false,'0.8',false,false,false,false,true,true,1,1,-0.9167649079446436,'пластик_стекло',true,true,false,Китай,'?'
false,-0.04297093377811336,false,0.31969382388752415,-0.7307013699672976,-0.21454796649554478,OneYear,false,'1',false,false,false,false,false,true,1,?,0.129382652254913,'пластик_сталь',true,true,false,Китай,'?'
false,-0.031473878633503705,false,-0.8161379907721233,0.4418882692373608,-0.21454796649554478,OneYear,false,'0.8',false,false,false,false,true,true,1,1,-0.00138579277003169,'сталь',true,false,false,Китай,'?'
false,-0.036485415491410475,false,-0.6922290655365255,0.2308221341805226,0.23205499719477635,OneYear,false,'0.88',false,true,false,false,true,true,1,1,-0.00138579277003169,'сталь',false,false,false,Китай,'?'
false,-0.04090735977779881,true,-0.6096231153794601,0.7936651609987584,-0.729859078445915,OneYear,false,'0.6',false,false,false,false,true,true,1,1,0.129382652254913,'сталь',true,false,false,Китай,'?'
false,-0.040317767206280365,true,0.8359810123691821,-0.9652192978082293,-0.21454796649554478,OneYear,false,'0.55',false,false,false,false,false,true,1,?,0.129382652254913,'пластик_сталь',true,true,false,Китай,'?'
false,-0.029999897204707603,false,-0.8161379907721233,0.2073703413964291,0.12899277480470206,OneYear,false,'0.75',false,false,false,false,true,true,1,1,0.129382652254913,'сталь_стекло',true,true,false,Китай,'?'
false,-0.022629990060727054,true,0.5262086992801873,-0.6134424060468319,0.6443038867550723,TwoYears,false,'0.8',true,false,true,true,false,true,7,1,-0.00138579277003169,'пластик_сталь',true,true,false,Китай,'шумоподавление_поддержание_температуры_заваривание_чая'
false,0.024537415660748442,false,0.6294661369765189,4.428693042533199,1.1596149987054425,OneYear,false,'0.8',true,false,true,true,true,true,1,1,-0.00138579277003169,'стекло_металл',true,true,false,Китай,'поддержание_температуры_заваривание_чая'
false,-0.02557795291831927,false,-0.8161379907721233,0.3480810981009885,1.331385369355566,OneYear,false,'0.8',false,false,false,false,true,true,1,1,-0.00138579277003169,'пластик_сталь',true,true,false,Китай,'?'
false,-0.03834263209169358,true,-0.09333592689780222,-0.37892447820590014,-0.729859078445915,OneYear,false,'1',false,false,false,false,false,true,1,2,-0.00138579277003169,'пластик_сталь',true,true,false,Китай,'?'
false,-0.02970510091894838,false,-0.8161379907721233,0.2073703413964291,0.12899277480470206,OneYear,false,'1',false,false,false,false,true,true,1,1,0.129382652254913,'пластик_сталь_стекло',true,true,false,Китай,'?'
false,-0.036485415491410475,true,-0.2378963396726663,-0.2616655142854343,-0.042777595845421366,OneYear,false,'0.6',false,false,false,false,true,true,1,1,0.129382652254913,'сталь',true,true,false,Китай,'?'
false,-0.03392068780530525,false,0.7327235746728505,-0.49618344212636595,-0.21454796649554478,ThreeYears,false,'0.7',false,true,false,false,true,true,1,1,0.129382652254913,'пластик_стекло',true,true,false,Китай,'?'
false,-0.03442184149109593,false,0.42295126158385576,0.4418882692373608,-0.9016294490960385,OneYear,false,'0.7',false,false,true,false,true,true,1,2,-0.00138579277003169,'пластик_сталь',true,true,false,Китай,'поддержание_температуры'
false,-0.033832248919577486,false,-0.7128805530757918,0.4184364764532673,0.47253351610494887,OneYear,false,'0.7',false,false,true,true,false,true,6,2,-0.26292268281992076,'пластик_сталь',true,true,false,Китай,'поддержание_температуры'
false,-0.03707500806292892,false,0.48490572420165484,-1.1059300545127884,0.06028462654465293,OneYear,false,'0.7',false,false,false,true,true,true,1,1,-0.00138579277003169,'сталь',true,true,false,Китай,'?'
false,-0.027936323204393047,false,-1.0846073287825857,0.09011137747596326,0.4381794419749237,OneYear,false,'0.7',false,false,true,true,true,true,3,1,-0.5244595728698098,'пластик_стекло',true,true,false,Китай,'поддержание_температуры'
false,-0.03442184149109593,true,-0.6715775779972593,0.3480810981009885,0.19770092306475118,OneYear,false,'0.7',false,false,false,false,true,true,1,1,-0.00138579277003169,'пластик',true,true,false,Китай,'?'
false,-0.03442184149109593,true,0.009921510798529376,-1.199737225649161,-0.21454796649554478,TwoYears,false,'0.8',false,false,false,false,true,false,1,1,-0.26292268281992076,'пластик_сталь',true,true,false,Китай,'?'
false,-0.03442184149109593,true,0.11317894849486097,-0.6134424060468319,-0.729859078445915,TwoYears,false,'0.8',false,false,false,false,true,true,1,1,-0.00138579277003169,'сталь',true,true,false,Китай,'?'
false,-0.03442184149109593,true,?,?,?,OneYear,false,?,false,false,false,false,true,true,1,1,0.129382652254913,'пластик_стекло',true,true,false,Китай,'?'
true,-0.031473878633503705,false,0.5881631618979865,-0.8948639194559497,-0.07713166997544654,OneYear,false,'0.65',false,false,true,true,true,true,5,2,-0.00138579277003169,'пластик_сталь',true,true,false,Китай,'поддержание_температуры'
false,-0.03589582291989204,false,?,-0.027147586444502582,-0.21454796649554478,OneYear,false,'0.75',false,false,false,false,true,true,1,1,-0.00138579277003169,'сталь',true,true,false,Китай,'?'
false,-0.031473878633503705,false,0.6294661369765189,-0.49618344212636595,-0.042777595845421366,OneYear,false,'1.7',false,false,false,true,true,true,1,?,-0.00138579277003169,'пластик_стекло',true,true,false,Китай,'?'
false,-0.040317767206280365,false,-0.7128805530757918,-0.6134424060468319,-0.9016294490960385,TwoYears,false,'0.9',false,true,false,false,true,true,1,1,-0.9167649079446436,'пластик_стекло',true,true,false,Китай,'поддержание_температуры'
false,-0.03442184149109593,false,-0.7128805530757918,-0.6134424060468319,-1.0733998197461618,TwoYears,false,'0.9',false,false,true,true,true,true,?,1,-0.9167649079446436,'стекло',true,true,false,Китай,'поддержание_температуры'
false,-0.037104487691504845,true,-0.09333592689780222,-0.37892447820590014,-0.3863183371456682,OneYear,false,'0.5',false,false,false,false,false,true,1,2,0.129382652254913,'пластик_сталь',true,true,false,Китай,'?'
false,-0.022629990060727054,false,-0.7335320406150581,1.3799599806010876,-0.5580887077957917,OneYear,false,'0.75',false,false,false,true,true,true,1,?,-0.00138579277003169,'сталь',true,true,false,Китай,'шумоподавление'
false,-0.03442184149109593,true,-0.4237597275260636,-0.050599379228596086,1.6405720365257876,TwoYears,false,'0.9',false,false,false,false,true,true,1,1,-0.00138579277003169,'пластик',true,true,false,Китай,'шумоподавление'
false,-0.022629990060727054,true,-0.2998508022904654,0.5356954403737332,0.4381794419749237,OneYear,false,'0.8',false,false,false,false,true,false,1,1,-0.00138579277003169,'сталь',true,true,false,Китай,'?'
false,-0.02557795291831927,true,-0.38245675244753036,0.2777257197487088,1.0221987021853443,OneYear,false,'0.8',false,false,false,false,true,false,1,1,-0.00138579277003169,'пластик_стекло',true,true,false,Китай,'?'
false,-0.02852591577591149,false,0.6294661369765189,0.4418882692373608,2.53377796390643,OneYear,false,'1',false,true,false,false,true,true,1,1,-0.00138579277003169,'пластик_металл',true,true,false,Китай,'?'
false,-0.03442184149109593,false,0.5262086992801873,-1.0824782617286952,-0.45502648540571733,OneYear,false,'0.75',false,false,false,false,true,true,1,1,-0.00138579277003169,'сталь',true,false,false,Китай,'?'
false,-0.02852591577591149,false,0.6294661369765189,0.4418882692373608,2.53377796390643,OneYear,false,'1',false,true,false,false,true,true,1,1,-0.00138579277003169,'пластик_металл',true,true,false,Китай,'?'
false,-0.03442184149109593,true,?,?,?,OneYear,false,?,false,false,false,false,true,true,1,1,-0.00138579277003169,'пластик_стекло',true,true,false,Китай,'?'
true,-0.031473878633503705,false,0.5881631618979865,-0.8948639194559497,-0.07713166997544654,OneYear,false,'0.65',false,false,true,true,true,true,5,2,-0.00138579277003169,'пластик_сталь',true,true,false,Китай,'поддержание_температуры'
false,-0.02705193434711538,false,-0.7128805530757918,0.699857989862386,0.8504283315352209,OneYear,false,'0.7',true,false,true,true,true,true,5,1,-0.00138579277003169,'пластик_сталь_стекло',true,true,false,Китай,'шумоподавление_поддержание_температуры_заваривание_чая'
false,-0.0331836970909072,true,0.21643638619119257,-0.7307013699672976,0.9878446280553191,OneYear,false,'0.75',false,false,false,false,false,true,1,1,30.467661898042053,'пластик_сталь',true,true,false,Китай,'?'
false,-0.031473878633503705,true,?,?,0.16334684893472723,OneYear,false,'0.7',false,false,false,false,true,true,1,1,0.129382652254913,'стекло',true,true,false,Китай,'?'
false,-0.02439876777528238,true,-0.9193954284684549,0.4418882692373608,0.12899277480470206,OneYear,false,'0.8',true,false,true,true,false,true,5,1,-0.00138579277003169,'пластик_сталь_стекло',true,false,false,Китай,'поддержание_температуры_заваривание_чая'
false,-0.03442184149109593,true,0.1338304360341276,0.9109241249192241,0.8160742574051957,OneYear,false,'0.75',false,false,true,false,true,true,1,1,-0.00138579277003169,'пластик',true,true,false,Китай,'?'
false,-0.02852591577591149,false,0.7327235746728505,-0.49618344212636595,-0.21454796649554478,ThreeYears,false,'0.7',false,true,false,false,true,true,1,1,0.129382652254913,'пластик_стекло',true,true,false,Китай,'?'
false,-0.0462136929214648,true,-0.9193954284684549,-0.9652192978082293,-1.0733998197461618,OneYear,false,'0.6',false,false,false,false,true,true,1,1,-1.439838688044422,'силикон',true,true,false,Китай,'?'
false,-0.02675713806135616,false,0.21643638619119257,-0.49618344212636595,-0.5580887077957917,OneYear,false,'0.65',false,false,false,false,true,true,1,1,-0.00138579277003169,'пластик_сталь_стекло',true,false,false,Китай,'?'
false,-0.03362589151954603,true,-0.6096231153794601,0.5122436475896405,0.541241664364998,OneYear,false,'0.6',true,false,true,true,true,true,5,1,0.3909195423048021,'пластик_стекло',true,true,false,Китай,'поддержание_температуры_заваривание_чая'
false,-0.02852591577591149,true,-0.8161379907721233,-0.027147586444502582,-1.2451701903962853,TwoYears,false,'0.76',false,false,false,false,true,true,1,?,1.0447617674295249,'пластик_сталь',true,true,false,Китай,'?'
false,-0.031473878633503705,true,?,?,?,OneYear,false,'0.65',false,false,false,false,true,true,1,1,0.129382652254913,'стекло',true,false,false,Китай,'?'
false,-0.02970510091894838,true,-0.6715775779972593,0.09011137747596326,1.331385369355566,OneYear,false,'0.6',false,false,true,true,false,true,5,2,-0.26292268281992076,'пластик',true,true,false,Китай,'поддержание_температуры'
false,-0.03560102663413282,true,-0.6096231153794601,-0.9652192978082293,-0.008423521715396193,OneYear,false,'70',false,false,false,false,true,true,1,1,-0.00138579277003169,'пластик_стекло',true,true,false,Китай,'?'
false,-0.03766460063444736,false,0.21643638619119257,-1.1528336400809749,0.12899277480470206,OneYear,false,'0.7',false,false,false,false,true,true,1,2,-0.00138579277003169,'сталь',true,true,false,Китай,'?'
false,-0.02705193434711538,true,-0.6096231153794601,0.2073703413964291,0.12899277480470206,OneYear,false,'0.7',false,false,true,false,true,false,3,1,-0.00138579277003169,'стекло',true,true,false,Китай,'шумоподавление'
false,-0.02557795291831927,true,-0.6096231153794601,0.4418882692373608,0.12899277480470206,OneYear,false,'0.72',false,false,false,false,true,true,1,1,-0.00138579277003169,'пластик_сталь_стекло',true,true,false,Китай,'?'
false,-0.02675713806135616,false,0.46425423666238824,-0.49618344212636595,0.12899277480470206,OneYear,false,'0.65',false,false,false,false,true,true,1,1,-0.00138579277003169,'пластик_сталь_стекло',true,false,false,Китай,'?'
false,-0.031473878633503705,false,-0.19659336459413382,0.2073703413964291,0.12899277480470206,OneYear,false,'0.75',false,false,false,false,true,true,1,1,0.129382652254913,'стекло',true,true,false,Китай,'?'
false,-0.03442184149109593,true,-0.403108239986797,0.3715328908850811,0.6443038867550723,OneYear,false,'0.75',false,false,false,true,true,true,1,2,-0.00138579277003169,'пластик_металл',true,true,false,Китай,'поддержание_температуры'
false,-0.03442184149109593,true,-0.6922290655365255,0.7936651609987584,-0.3863183371456682,OneYear,false,'0.75',false,false,false,true,true,true,1,1,-0.00138579277003169,'металл',true,true,false,Китай,'?'
false,-0.03442184149109593,true,-0.6282094541647998,0.31055822964643937,0.6477392941680753,OneYear,false,'0.75',false,false,false,true,true,true,4,2,-0.00138579277003169,'пластик_металл',true,true,false,Китай,'поддержание_температуры'
false,-0.03442184149109593,true,0.7533750622121171,-1.176285432865068,0.30076314545482546,OneYear,false,'0.65',false,false,true,true,true,true,5,1,-0.00138579277003169,'сталь',true,true,false,Китай,'поддержание_температуры'
true,-0.031473878633503705,false,0.5881631618979865,-0.8948639194559497,-0.07713166997544654,OneYear,false,'0.65',false,false,true,true,true,true,5,2,-0.00138579277003169,'пластик_сталь',true,true,false,Китай,'поддержание_температуры'
false,-0.03442184149109593,true,-0.6922290655365255,0.7936651609987584,-0.3863183371456682,OneYear,false,'0.75',false,false,false,true,true,true,1,1,-0.00138579277003169,'металл',true,true,false,Китай,'?'
false,-0.03442184149109593,true,-0.19659336459413382,-0.49618344212636595,-0.21454796649554478,TwoYears,false,'0.7',false,false,false,false,true,true,1,1,-0.00138579277003169,'стекло',true,true,false,Китай,'?'
false,-0.02557795291831927,true,-0.6096231153794601,0.5122436475896405,0.6786579608850974,OneYear,false,'0.7',false,false,true,true,false,true,6,2,-0.00138579277003169,'пластик_металл',true,true,false,Китай,'поддержание_температуры'
false,-0.03654437474856233,false,0.009921510798529376,-0.14440655036496844,-0.21454796649554478,OneYear,false,'1',false,false,false,false,false,true,1,?,0.3909195423048021,'пластик_сталь',true,true,false,Китай,'?'
false,-0.016734064345542612,true,1.1457533254581769,0.2777257197487088,0.9878446280553191,OneYear,false,'0.65',false,false,false,false,true,true,1,1,-0.26292268281992076,'пластик',true,true,false,Китай,'?'
false,-0.02705193434711538,true,0.8153295248299155,0.8874723321351307,0.47253351610494887,OneYear,false,'0.7',false,false,false,true,true,true,6,1,-0.00138579277003169,'стекло_металл',true,true,false,Китай,'поддержание_температуры'
false,-0.03589582291989204,true,-0.8161379907721233,0.2073703413964291,-0.008423521715396193,OneYear,false,'0.63',false,false,false,false,true,true,1,1,-0.00138579277003169,'пластик_стекло',true,true,false,Китай,'?'
false,-0.022629990060727054,false,-0.19659336459413382,0.2073703413964291,-0.21454796649554478,OneYear,false,'0.75',false,false,false,false,true,true,1,1,-0.00138579277003169,'стекло',true,false,false,Китай,'?'
false,-0.031473878633503705,true,0.05122448587706187,0.7233097826464787,1.8466964813059363,OneYear,false,'0.7',false,false,false,true,true,true,1,1,-0.00138579277003169,'сталь',true,true,false,Китай,'?'
false,-0.03736980434868815,true,-0.403108239986797,-0.027147586444502582,-0.21454796649554478,HalfYear,false,'0.75',false,false,false,false,true,true,1,1,0.129382652254913,'металл',true,true,false,Китай,'?'
false,-0.042086544920835696,true,-0.6302746029187264,0.13701496304414942,-0.2832561147555939,OneYear,false,'0.7',true,false,false,false,true,true,1,?,-0.00138579277003169,'пластик',false,false,false,Китай,'заваривание_чая'
false,-0.040317767206280365,true,-0.403108239986797,0.2073703413964291,-0.9016294490960385,OneYear,false,'0.68',false,false,false,true,true,true,1,1,-0.00138579277003169,'сталь',true,true,false,Китай,'?'
false,-0.029999897204707603,true,-0.5889716278401935,0.7936651609987584,1.1939690728354677,OneYear,false,'0.85',false,false,false,false,false,true,1,2,0.129382652254913,'пластик_сталь',true,true,false,Китай,'поддержание_температуры'
false,-0.03507039331976622,true,-0.4650627026045961,0.6295026115101063,-0.4206724112756934,TwoYears,false,'0.8',false,false,false,false,true,true,1,1,-0.00138579277003169,'пластик',true,true,false,Китай,'?'
false,-0.022629990060727054,true,1.207707788075976,-1.117655950904835,-0.14583981823549566,OneYear,false,'0.8',false,false,true,true,false,true,4,2,-0.26292268281992076,'сталь',true,true,false,Китай,'поддержание_температуры'
false,-0.019682027203134833,false,0.42295126158385576,-1.0824782617286952,1.8466964813059363,TwoYears,false,'0.8',false,false,true,true,true,true,1,?,-0.6552280178947545,'сталь',false,true,false,Китай,'поддержание_температуры'
false,-0.03501143406261437,true,-0.7954865032328571,0.2073703413964291,0.8160742574051957,OneYear,false,'0.7',false,false,false,false,true,true,1,2,-0.00138579277003169,'пластик_сталь',true,true,false,Китай,'?'
false,-0.04267613749235414,true,-0.6922290655365255,-0.07405117201268875,-0.7642131525759402,OneYear,false,'0.75',false,false,false,false,true,true,1,1,-0.26292268281992076,'пластик',true,true,false,Китай,'?'
false,-0.031473878633503705,true,0.030572998337795986,2.2007727280443485,-1.6574190799565813,OneYear,false,'1',false,false,false,true,true,true,1,1,-0.00138579277003169,'сталь',true,true,false,Китай,'?'
false,-0.03501143406261437,true,-0.7954865032328571,0.2073703413964291,0.8160742574051957,OneYear,false,'0.75',false,false,false,false,true,true,1,2,-0.00138579277003169,'пластик_металл',true,false,false,Китай,'?'
false,-0.04267613749235414,true,-0.8161379907721233,-0.49618344212636595,-0.9016294490960385,OneYear,false,'0.75',false,false,false,false,true,true,1,1,-0.00138579277003169,'пластик',true,true,false,Китай,'поддержание_температуры'
false,-0.03736980434868815,true,-0.403108239986797,0.2073703413964291,-0.21454796649554478,OneYear,false,'0.8',false,false,false,false,true,true,1,1,-0.00138579277003169,'сталь',true,true,false,Китай,'?'
false,-0.029115508347429934,true,-0.7541835281543242,0.488791854805547,0.30076314545482546,OneYear,false,'0.75',false,false,true,true,true,true,3,2,-0.00138579277003169,'пластик_стекло',true,true,false,Китай,'?'
false,-0.03736980434868815,true,-0.403108239986797,0.09011137747596326,0.12899277480470206,OneYear,false,'1',false,false,false,false,false,true,1,2,0.129382652254913,'пластик',true,true,false,Китай,'?'
false,-0.02941030463318916,true,1.1870563005367094,-1.0121228833764155,-0.6611509301858659,OneYear,false,'0.7',true,false,true,true,true,true,7,1,-0.00138579277003169,'стекло',true,true,false,Китай,'поддержание_температуры_заваривание_чая'
false,-0.03795939692020659,false,-0.7335320406150581,0.5825990259419201,0.12899277480470206,TwoYears,false,'0.7',false,false,false,false,true,true,1,1,-0.00138579277003169,'сталь',true,true,false,Китай,'?'
false,-0.03442184149109593,true,?,?,?,TwoYears,false,?,false,false,false,true,true,true,7,1,-0.00138579277003169,'сталь',true,true,false,Китай,'поддержание_температуры'
false,-0.03442184149109593,true,-0.403108239986797,0.3715328908850811,0.6443038867550723,OneYear,false,'0.75',false,false,false,true,true,true,1,2,-0.00138579277003169,'пластик_металл',true,true,false,Китай,'поддержание_температуры'
false,-0.026020147346958105,true,0.6294661369765189,-0.37892447820590014,0.47253351610494887,OneYear,false,'1',false,false,false,false,true,true,1,1,-0.00138579277003169,'стекло',true,true,false,Китай,'?'
false,-0.03736980434868815,true,0.34034531142679075,0.5122436475896405,-2.6193331555972725,OneYear,false,'0.75',false,false,false,false,true,true,1,1,-0.00138579277003169,'сталь',true,true,false,Китай,'?'
false,-0.02852591577591149,true,-0.19659336459413382,0.4418882692373608,-0.21454796649554478,OneYear,false,'1.4',false,false,false,false,true,true,1,1,-0.00138579277003169,'пластик_стекло',true,true,false,Китай,'?'
false,-0.03619061920565126,true,-0.403108239986797,0.3715328908850811,0.6443038867550723,OneYear,false,'1.4',false,false,false,true,true,true,1,2,-0.00138579277003169,'пластик',true,true,false,Китай,'?'
false,-0.031179082347744483,true,-0.5476686527616611,0.6764061970782925,0.6443038867550723,OneYear,false,'0.75',false,false,false,true,true,true,5,1,0.129382652254913,'стекло',true,false,false,Китай,'поддержание_температуры'
false,-0.03442184149109593,true,-0.2998508022904654,0.2073703413964291,-1.2451701903962853,OneYear,false,'0.7',false,false,false,true,true,false,1,1,-0.00138579277003169,'сталь',true,true,false,Китай,'?'
false,-0.03442184149109593,true,0.21643638619119257,-0.9652192978082293,-0.5580887077957917,TwoYears,false,'1',false,false,false,true,true,true,1,1,-0.00138579277003169,'сталь',true,true,false,Китай,'?'
false,-0.03442184149109593,true,-0.19659336459413382,-0.49618344212636595,1.5031557400056894,OneYear,false,'0.75',false,false,false,false,false,true,1,1,0.3909195423048021,'пластик_металл',true,true,false,Китай,'?'
false,-0.031473878633503705,false,1.0424958877618453,0.18391854861233561,0.8504283315352209,OneYear,false,'0.8',false,false,false,false,false,false,1,2,-0.00138579277003169,'пластик_сталь',true,false,false,Китай,'?'
false,-0.029115508347429934,true,-0.7541835281543242,0.488791854805547,0.30076314545482546,OneYear,false,'0.75',false,false,true,true,true,true,3,2,-0.00138579277003169,'пластик_стекло',true,true,false,Китай,'?'
false,-0.03501143406261437,true,-0.7954865032328571,0.2073703413964291,0.8160742574051957,OneYear,false,'0.75',false,false,false,false,true,true,1,2,-0.00138579277003169,'пластик_металл',true,false,false,Китай,'?'
false,-0.03442184149109593,true,-1.0846073287825857,0.5591472331578267,0.4381794419749237,OneYear,false,'0.65',false,false,false,false,true,true,1,1,0.129382652254913,'пластик_металл',true,false,false,Китай,'?'
false,-0.025283156632560047,true,0.21643638619119257,0.6764061970782925,1.1596149987054425,OneYear,false,'0.75',false,false,false,false,true,true,1,2,0.3909195423048021,'пластик',true,true,false,Германия,'?'
false,-0.03972817463476192,true,0.21643638619119257,-0.027147586444502582,-0.5580887077957917,OneYear,false,'0.73',false,false,false,false,true,true,1,1,-0.00138579277003169,'пластик',true,true,false,Китай,'?'
false,-0.03412704520533671,true,-0.7128805530757918,0.3480810981009885,0.8847824056652449,OneYear,false,'0.7',true,false,false,false,true,true,1,?,-0.00138579277003169,'сталь',true,true,false,Китай,'заваривание_чая'
false,-0.031473878633503705,true,-0.48571419014386197,0.4418882692373608,0.06028462654465293,OneYear,false,'0.75',false,false,false,true,true,true,1,1,-0.00138579277003169,'сталь',true,true,false,Китай,'?'
false,-0.031768674919262926,true,-0.6096231153794601,0.488791854805547,0.23205499719477635,OneYear,false,'0.75',false,false,true,true,true,true,5,1,-0.00138579277003169,'стекло',true,true,false,Китай,'поддержание_температуры'
false,-0.030981568836285805,true,0.009921510798529376,-0.2616655142854343,-0.21454796649554478,OneYear,false,?,false,false,false,false,true,true,1,1,0.129382652254913,'стекло',true,true,false,Китай,'?'
false,-0.03943337834900269,true,-0.7954865032328571,0.652954404294199,0.30076314545482546,OneYear,false,'0.7',true,false,false,false,true,true,1,?,-0.00138579277003169,'стекло',true,true,false,Китай,'заваривание_чая'
false,-0.023514378918004716,true,0.42295126158385576,-0.14440655036496844,0.541241664364998,TwoYears,false,'0.75',false,false,true,true,true,true,4,?,-0.00138579277003169,'стекло',true,true,false,Китай,'поддержание_температуры'
false,-0.03589582291989204,true,-0.19659336459413382,-0.49618344212636595,-0.3863183371456682,HalfYear,false,'0.7',false,false,false,false,false,true,1,1,0.129382652254913,'пластик_сталь',true,true,false,Китай,'?'
false,-0.03442184149109593,true,-1.0226528661647865,0.4418882692373608,0.12899277480470206,TwoYears,false,'0.75',false,false,false,false,true,true,1,1,-0.00138579277003169,'пластик_сталь',true,true,false,Китай,'?'
false,-0.040317767206280365,true,-0.8822227508977757,0.5732183088282823,0.04654299689264335,OneYear,false,'0.75',false,false,false,false,true,true,1,1,-0.00138579277003169,'пластик_сталь',true,true,false,Китай,'?'
false,-0.033242656348059035,true,0.4022997740445891,-1.0121228833764155,0.47253351610494887,OneYear,false,'0.7',false,false,false,true,true,true,1,1,-0.00138579277003169,'стекло',true,true,false,Китай,'?'
false,-0.03442184149109593,true,0.8359810123691821,-1.1059300545127884,-0.6267968560558408,OneYear,false,'0.75',false,false,true,false,true,true,1,?,-0.00138579277003169,'металл',true,true,false,Китай,'?'
false,-0.030736887919105654,true,0.31969382388752415,0.09011137747596326,0.47253351610494887,OneYear,false,?,false,false,false,false,true,true,1,1,0.6524564323546914,'стекло',true,false,false,Китай,'?'
false,-0.0334490137480905,true,0.009921510798529376,-0.2616655142854343,1.1596149987054425,OneYear,false,'1',false,false,false,false,true,true,1,1,0.129382652254913,'стекло',true,true,false,Китай,'?'
false,-0.021156008631930946,true,0.7327235746728505,-1.2700926040014406,0.12899277480470206,TwoYears,false,'0.8',false,false,false,false,false,true,4,2,-0.6552280178947545,'сталь',true,true,false,Китай,'шумоподавление_поддержание_температуры'
false,-0.019682027203134833,true,0.21643638619119257,0.7936651609987584,-0.21454796649554478,TwoYears,false,'0.8',true,false,true,false,false,true,5,1,-0.9167649079446436,'сталь_стекло_металл',true,true,false,Китай,'поддержание_температуры_заваривание_чая'
false,-0.02557795291831927,true,0.21643638619119257,0.6764061970782925,1.1596149987054425,OneYear,false,'0.75',false,false,false,false,true,true,1,2,0.3909195423048021,'пластик',true,true,false,Германия,'?'
false,-0.03265306377654059,false,-0.7128805530757918,0.09011137747596326,0.47253351610494887,OneYear,false,'0.7',false,false,false,true,true,true,1,1,-0.00138579277003169,'пластик_сталь_стекло',true,true,false,Китай,'?'
false,-0.024988360346800825,true,0.9392384500655137,-0.14440655036496844,0.6443038867550723,OneYear,false,'1',false,false,false,false,true,true,1,1,0.3909195423048021,'стекло',true,true,false,Китай,'?'
false,-0.03412704520533671,true,-0.7128805530757918,0.3480810981009885,0.8847824056652449,OneYear,false,'0.7',true,false,false,false,true,true,1,2,-0.00138579277003169,'сталь',true,true,false,Китай,'заваривание_чая'
false,-0.03442184149109593,true,-0.05203295181926973,0.4418882692373608,7.343348342109886,OneYear,false,?,true,false,false,false,true,true,7,1,-0.00138579277003169,'стекло',true,true,false,Китай,'поддержание_температуры_заваривание_чая'
false,-0.02852591577591149,true,0.691420599594318,-0.37892447820590014,0.12899277480470206,TwoYears,false,'1',false,false,true,false,true,true,1,1,-0.00138579277003169,'стекло',true,true,false,Китай,'?'
false,-0.04025880794912852,true,-1.0433043537040527,1.9662548002034168,-1.0733998197461618,OneYear,false,'0.6',false,false,false,false,false,true,1,1,-0.9167649079446436,'сталь',true,false,false,Китай,'?'
false,-0.03206347120502215,false,-0.6715775779972593,0.25427392696461526,1.0221987021853443,OneYear,false,'0.7',false,false,false,true,false,true,7,2,-0.00138579277003169,'пластик',true,true,false,Китай,'поддержание_температуры'
false,-0.04061256349203959,true,-0.6715775779972593,0.3480810981009885,-0.042777595845421366,OneYear,false,'0.75',false,false,false,true,true,true,1,1,-0.00138579277003169,'пластик',true,true,false,Китай,'?'
false,-0.03442184149109593,true,0.21643638619119257,-0.7307013699672976,-0.5580887077957917,TwoYears,false,'0.8',false,false,false,false,true,true,1,1,0.3909195423048021,'сталь',true,true,false,Китай,'?'
false,-0.03972817463476192,true,0.29904233634825755,-0.9417675050241359,0.541241664364998,OneYear,false,'0.7',false,false,false,false,true,true,1,1,-0.00138579277003169,'пластик',true,true,false,Китай,'?'
false,-0.038254193205965806,true,0.21643638619119257,-0.7307013699672976,-0.9016294490960385,OneYear,false,'1',false,false,false,false,true,true,1,1,-0.00138579277003169,'пластик',true,true,false,Китай,'?'
false,-0.023514378918004716,false,0.9805414251440462,-0.9652192978082293,1.0221987021853443,OneYear,false,'0.7',false,false,false,false,true,false,1,2,-0.26292268281992076,'пластик_сталь',true,true,false,Китай,'?'
false,-0.02852591577591149,true,-0.7128805530757918,0.5825990259419201,1.1596149987054425,OneYear,false,'0.8',false,false,false,false,true,true,1,3,0.129382652254913,'сталь',true,false,false,Китай,'?'
false,-0.03736980434868815,true,1.1870563005367094,0.6060508187260129,-2.447562784947149,OneYear,false,'0.75',false,false,false,false,true,true,1,1,0.129382652254913,'стекло',true,true,false,Китай,'?'
false,0.024537415660748442,true,0.6294661369765189,4.428693042533199,0.8160742574051957,OneYear,false,'1.6',true,false,true,true,true,true,3,1,-0.00138579277003169,'сталь_стекло',true,true,false,Китай,'поддержание_температуры_заваривание_чая'
false,-0.040317767206280365,false,0.009921510798529376,-0.7307013699672976,-1.3138783386563344,ThreeYears,false,'0.7',false,false,false,false,true,true,1,1,-0.00138579277003169,'пластик',true,true,false,Китай,'?'
false,-0.041791748635076474,true,0.5262086992801873,0.4418882692373608,-2.791103526247396,OneYear,false,'0.75',false,false,false,false,true,true,1,1,-0.00138579277003169,'пластик',true,true,false,Россия,'?'
false,-0.030736887919105654,true,0.009921510798529376,0.2073703413964291,0.12899277480470206,OneYear,false,'0.8',false,false,false,false,true,true,1,1,-0.00138579277003169,'пластик_стекло',true,true,false,Китай,'?'
false,-0.03442184149109593,true,?,?,?,OneYear,false,'0.72',false,false,false,false,true,true,1,1,-0.00138579277003169,'стекло',true,true,false,Китай,'?'
false,-0.02852591577591149,true,2.281585140117824,-0.027147586444502582,0.47253351610494887,OneYear,false,'0.7',false,false,false,false,true,true,1,1,-0.00138579277003169,'металл',true,true,false,Китай,'?'
false,-0.040317767206280365,true,0.21643638619119257,-1.316996189569627,-1.2451701903962853,TwoYears,false,'0.8',false,false,false,false,true,true,1,1,-0.6552280178947545,'пластик_стекло',true,true,false,Китай,'?'
false,-0.03589582291989204,true,?,?,?,OneYear,false,?,false,false,false,false,true,true,1,2,-0.00138579277003169,'пластик_сталь',true,true,false,Китай,'?'
false,-0.029999897204707603,true,-0.8161379907721233,0.2073703413964291,0.12899277480470206,OneYear,false,'0.75',false,false,false,false,true,true,1,?,-0.26292268281992076,'пластик',true,true,false,Китай,'?'
false,-0.03280046191942021,true,0.11317894849486097,-0.14440655036496844,1.5031557400056894,OneYear,false,'1',false,false,false,false,true,true,1,1,0.129382652254913,'стекло',true,true,false,Китай,'?'
false,-0.03442184149109593,true,0.009921510798529376,-0.9652192978082293,-0.9016294490960385,TwoYears,false,'0.66',false,false,false,false,true,true,1,1,0.129382652254913,'стекло',true,true,false,Китай,'?'
false,-0.04137903383501356,false,0.42295126158385576,-0.7307013699672976,-0.3863183371456682,OneYear,false,'1',false,false,false,false,false,true,1,?,0.129382652254913,'пластик_сталь',true,true,false,Китай,'?'
false,-0.029115508347429934,true,-0.7541835281543242,0.488791854805547,0.30076314545482546,OneYear,false,'0.75',false,false,true,true,true,true,1,2,-0.00138579277003169,'пластик_стекло',true,true,false,Китай,'?'
false,-0.04061256349203959,true,-0.6715775779972593,0.3480810981009885,-0.042777595845421366,OneYear,false,'0.75',false,false,false,true,true,true,1,1,-0.00138579277003169,'пластик',true,true,false,Китай,'?'
false,-0.026462341775596938,false,0.15448192357339346,-0.9652192978082293,-0.5580887077957917,ThreeYears,false,'0.7',false,false,false,false,true,true,1,1,-0.00138579277003169,'пластик',true,true,false,Китай,'?'
false,-0.03088428606198526,false,-0.5889716278401935,0.3480810981009885,0.2664090713248003,OneYear,false,'0.7',false,false,false,false,false,true,1,1,-0.00138579277003169,'стекло',true,true,false,Китай,'?'
false,-0.03766460063444736,true,0.31969382388752415,-0.7307013699672976,-0.042777595845421366,OneYear,false,'1.5',false,false,false,false,false,true,1,1,0.129382652254913,'сталь',true,true,false,Китай,'?'
false,-0.010838138630358178,true,1.6620405139398349,0.4418882692373608,1.1596149987054425,OneYear,false,'0.8',false,false,false,false,false,true,1,1,0.3909195423048021,'керамика',true,true,false,Китай,'?'
false,-0.026462341775596938,false,0.15448192357339346,-0.9652192978082293,-0.5580887077957917,OneYear,false,'1',false,false,false,false,true,true,1,1,-0.00138579277003169,'пластик_стекло',true,true,false,Китай,'?'
false,-0.031768674919262926,true,-0.7541835281543242,0.04320779190777709,0.5755957384950232,OneYear,false,'0.75',false,false,true,true,true,true,4,?,-0.00138579277003169,'сталь',true,true,false,Китай,'поддержание_температуры'
false,-0.023956573346643553,true,0.6294661369765189,-0.2616655142854343,0.47253351610494887,OneYear,false,'1',false,false,false,false,true,true,1,1,-0.00138579277003169,'стекло',false,true,false,Китай,'?'
false,-0.03589582291989204,true,-0.6509260904579927,0.4418882692373608,-0.6267968560558408,OneYear,false,'0.75',false,false,false,false,true,true,1,1,-0.00138579277003169,'пластик_сталь',true,true,false,Китай,'?'
false,-0.03442184149109593,true,-0.09333592689780222,0.4418882692373608,0.47253351610494887,OneYear,false,'0.8',false,false,false,false,true,true,1,1,-0.00138579277003169,'стекло',true,true,false,Китай,'?'
false,-0.032210869347901766,true,0.009921510798529376,-0.2616655142854343,0.12899277480470206,OneYear,false,?,false,false,false,false,true,true,?,1,0.129382652254913,'стекло',true,false,false,Китай,'?'
false,-0.027936323204393047,true,-0.403108239986797,-0.49618344212636595,2.877318705206677,OneYear,false,'0.72',false,false,false,false,true,true,1,1,-0.26292268281992076,'пластик_стекло',true,true,false,Китай,'?'
false,-0.02852591577591149,true,0.691420599594318,-0.37892447820590014,0.12899277480470206,TwoYears,false,'1',false,false,true,false,true,true,1,1,-0.00138579277003169,'стекло',true,true,false,Китай,'?'
false,-0.03736980434868815,true,?,?,?,TwoYears,false,'0.65',false,false,false,false,true,true,1,1,-0.00138579277003169,'пластик',true,true,false,Китай,'?'
false,-0.03088428606198526,true,-0.7541835281543242,0.4418882692373608,-0.7642131525759402,OneYear,false,'0.7',true,false,false,true,true,true,7,1,-0.00138579277003169,'пластик_сталь_стекло',true,true,false,Китай,'поддержание_температуры_заваривание_чая'
false,-0.031473878633503705,true,0.21643638619119257,-1.6687730813310244,-0.042777595845421366,OneYear,false,'1',true,false,false,true,true,true,7,1,-0.00138579277003169,'сталь',true,true,false,Китай,'поддержание_температуры_заваривание_чая'
false,-0.03766460063444736,true,-0.2998508022904654,0.32462930531689493,0.30076314545482546,OneYear,false,'0.75',false,false,false,true,true,true,7,1,-0.00138579277003169,'сталь',true,false,false,Китай,'поддержание_температуры'
false,-0.03265306377654059,false,0.48490572420165484,-0.9417675050241359,0.7817201832751706,OneYear,false,'0.8',false,false,true,true,true,true,5,2,-0.26292268281992076,'сталь',true,false,false,Китай,'поддержание_температуры'
false,-0.03736980434868815,true,-0.6096231153794601,-0.9652192978082293,-0.21454796649554478,OneYear,false,'0.7',false,false,false,false,true,true,1,1,0.3909195423048021,'пластик',true,true,false,Китай,'?'
false,-0.031473878633503705,false,0.07187597341632848,0.9578277104874103,0.3694712937148746,OneYear,false,'0.75',false,false,false,true,true,true,1,2,-0.00138579277003169,'пластик_металл',true,true,false,Китай,'?'
false,-0.026167545489837716,true,0.6294661369765189,0.09011137747596326,1.331385369355566,OneYear,false,'0.7',false,false,false,false,true,true,1,1,-0.00138579277003169,'стекло',true,true,false,Китай,'?'
false,-0.040317767206280365,true,0.42295126158385576,-0.8948639194559497,-0.21454796649554478,OneYear,false,'0.75',false,false,true,false,true,true,1,?,-0.00138579277003169,'пластик',true,true,false,Китай,'?'
false,-0.040317767206280365,false,-0.8161379907721233,0.3480810981009885,0.47253351610494887,OneYear,false,'0.75',false,false,false,false,false,true,1,2,0.3909195423048021,'пластик_сталь',true,true,false,Китай,'?'
false,-0.022629990060727054,false,0.9392384500655137,-1.3873515679219066,0.5068875902349741,OneYear,false,'1',false,true,false,false,true,true,1,1,-0.00138579277003169,'пластик_стекло',false,true,false,Китай,'?'
false,-0.03265306377654059,false,0.6294661369765189,-0.9652192978082293,0.9878446280553191,OneYear,false,'1',false,false,true,true,false,true,5,2,-0.00138579277003169,'пластик_сталь',true,true,false,Китай,'поддержание_температуры'
false,-0.03795939692020659,true,-0.7128805530757918,0.5825990259419201,0.7473661091451466,OneYear,false,'0.7',false,false,false,true,false,true,1,1,-0.00138579277003169,'сталь',true,true,false,Китай,'?'
false,-0.026167545489837716,false,0.6294661369765189,-1.199737225649161,-0.5580887077957917,OneYear,false,'0.75',false,false,false,false,true,true,5,1,-0.00138579277003169,'пластик_металл',true,true,false,Китай,'поддержание_температуры'
false,-0.03442184149109593,false,-0.7128805530757918,0.2073703413964291,0.12899277480470206,OneYear,false,'0.7',false,false,false,false,true,true,1,?,-0.00138579277003169,'пластик_стекло_металл',true,true,false,Китай,'?'
false,-0.03442184149109593,true,-0.7128805530757918,0.32462930531689493,0.19770092306475118,OneYear,false,'0.7',false,false,false,true,true,true,1,1,-0.00138579277003169,'стекло',true,true,false,Китай,'?'
false,-0.027346730632874603,false,0.42295126158385576,-1.0121228833764155,-0.9016294490960385,OneYear,false,'0.75',false,false,false,true,true,true,7,2,-0.00138579277003169,'пластик_металл',true,true,false,Китай,'поддержание_температуры'
false,-0.033832248919577486,false,-1.0226528661647865,0.4418882692373608,-0.21454796649554478,OneYear,false,'0.75',false,false,false,false,true,true,1,2,0.3909195423048021,'пластик_стекло',true,true,false,Китай,'?'
false,-0.041791748635076474,false,-1.0020013786255202,0.3715328908850811,0.6786579608850974,OneYear,false,'0.75',false,false,false,false,false,true,1,2,0.129382652254913,'пластик_сталь',true,true,false,Китай,'?'
false,-0.042086544920835696,true,-0.403108239986797,-0.49618344212636595,2.877318705206677,OneYear,false,'0.72',false,false,false,false,true,true,1,1,-0.9167649079446436,'пластик_стекло',true,true,false,Китай,'?'
false,-0.040317767206280365,false,-0.8161379907721233,0.3480810981009885,0.47253351610494887,OneYear,false,'0.75',false,false,false,false,false,true,1,2,0.3909195423048021,'пластик_сталь',true,true,false,Китай,'?'
false,-0.033832248919577486,false,-1.0226528661647865,0.4418882692373608,-0.21454796649554478,OneYear,false,'0.75',false,false,false,false,true,true,1,2,0.3909195423048021,'пластик_стекло',true,true,false,Китай,'?'
false,-0.02852591577591149,true,-0.19659336459413382,0.2073703413964291,0.12899277480470206,OneYear,false,'0.75',false,false,false,false,true,true,1,1,-0.00138579277003169,'стекло',true,false,false,Китай,'поддержание_температуры'
false,-0.019682027203134833,false,0.6294661369765189,-1.0824782617286952,-0.5580887077957917,OneYear,false,'0.7',false,false,false,true,true,true,1,2,-0.00138579277003169,'пластик_металл',true,true,false,Китай,'?'
false,-0.03206347120502215,true,0.11317894849486097,-0.14440655036496844,0.30076314545482546,OneYear,false,'1',false,false,false,false,true,true,1,1,0.129382652254913,'стекло',true,true,false,Китай,'?'
false,-0.022629990060727054,false,-0.7335320406150581,1.3799599806010876,-0.5580887077957917,OneYear,false,'0.75',false,false,false,true,true,true,1,1,-0.00138579277003169,'сталь',true,true,false,Китай,'шумоподавление'
false,-0.03509987294834214,false,0.7120720871335839,-0.871412126671857,0.2664090713248003,TwoYears,false,'0.75',false,false,false,false,false,true,1,2,0.26015109727985736,'пластик_сталь',true,true,false,Китай,'?'
false,-0.04267613749235414,false,0.5262086992801873,-1.0824782617286952,0.16334684893472723,OneYear,true,'0.8',false,false,false,false,false,true,1,2,0.129382652254913,'пластик_сталь',true,true,false,Китай,'?'
false,-0.033242656348059035,true,0.42295126158385576,0.2073703413964291,0.8160742574051957,OneYear,false,'0.7',false,false,true,false,true,true,1,2,-0.00138579277003169,'сталь',true,true,false,Китай,'?'
false,-0.03442184149109593,false,0.009921510798529376,-0.9652192978082293,-1.5887109316965322,TwoYears,false,'0.8',false,false,false,true,true,true,1,?,-0.00138579277003169,'сталь',true,true,false,Китай,'?'
false,-0.03736980434868815,true,-0.8574409658506559,0.11356317026005677,0.19770092306475118,OneYear,false,'0.6',false,false,false,false,false,true,1,1,-0.00138579277003169,'пластик_стекло',true,true,false,Китай,'?'
false,-0.022629990060727054,false,-0.7335320406150581,1.3799599806010876,-0.5580887077957917,OneYear,false,'0.75',false,true,false,true,true,true,1,1,-0.00138579277003169,'сталь',true,true,false,Китай,'шумоподавление'
false,-0.029999897204707603,true,-0.19659336459413382,0.2073703413964291,0.12899277480470206,HalfYear,false,'0.73',false,false,false,false,true,true,1,1,-0.00138579277003169,'пластик_стекло',true,true,false,Китай,'?'
false,0.01392474937341646,false,0.6294661369765189,4.592855592021852,0.6443038867550723,OneYear,false,'0.7',true,false,false,false,true,true,1,1,0.3909195423048021,'пластик_сталь',true,true,false,Китай,'поддержание_температуры_заваривание_чая'
false,-0.03471663777685515,false,-0.9400469160077212,1.0750866744078762,0.40382536784489975,OneYear,false,'0.6',false,false,false,false,true,true,1,1,-0.00138579277003169,'сталь',true,true,false,Китай,'?'
false,-0.021450804917690167,true,-0.1552903895156013,0.9578277104874103,0.541241664364998,OneYear,false,'0.75',true,false,false,true,true,true,13,1,-0.00138579277003169,'сталь_стекло',true,true,false,Китай,'поддержание_температуры_заваривание_чая'
false,-0.04444491520690946,true,0.2783908488089917,-0.8479603338877635,0.5755957384950232,OneYear,false,'0.7',false,false,false,false,true,true,1,1,0.129382652254913,'сталь',true,true,false,Китай,'?'
false,-0.03736980434868815,true,-0.403108239986797,-0.49618344212636595,2.877318705206677,OneYear,false,'0.75',false,false,false,true,true,true,7,1,-0.00138579277003169,'сталь',true,true,false,Китай,'поддержание_температуры'
false,-0.0386374283774528,true,-0.8161379907721233,0.6764061970782925,-1.0733998197461618,OneYear,false,'0.7',false,false,false,false,true,true,1,1,-0.00138579277003169,'пластик_сталь_стекло',true,true,false,Китай,'?'
false,-0.031473878633503705,true,1.4142226634686392,0.488791854805547,0.7473661091451466,OneYear,false,'0.8',false,false,false,false,true,true,1,1,-0.00138579277003169,'сталь',true,true,false,Китай,'?'
false,-0.03736980434868815,true,-0.6096231153794601,-0.9652192978082293,-0.21454796649554478,TwoYears,false,'0.7',false,false,false,false,true,true,1,1,0.3909195423048021,'пластик',true,true,false,Китай,'?'
false,-0.03736980434868815,false,-0.6096231153794601,-0.027147586444502582,-0.21454796649554478,HalfYear,false,'0.75',false,false,false,false,true,true,1,?,0.129382652254913,'металл',true,true,false,Китай,'?'
false,-0.026875056575659848,false,0.31969382388752415,0.09011137747596326,0.47253351610494887,OneYear,false,'1',false,false,false,false,false,true,1,?,-0.26292268281992076,'пластик_стекло',true,true,false,Китай,'?'
false,-0.031473878633503705,false,?,?,?,TwoYears,false,'0.7',false,false,false,false,true,true,1,?,-0.00138579277003169,'пластик_стекло',true,true,false,Китай,'?'
false,-0.03586634329131611,false,0.009921510798529376,-0.14440655036496844,-0.21454796649554478,OneYear,false,'1',false,false,false,false,false,true,1,?,0.3909195423048021,'пластик_сталь',true,true,false,Китай,'?'
false,-0.03442184149109593,true,-0.7128805530757918,1.520670737305647,-0.8329213008359894,OneYear,false,'0.7',false,false,true,true,true,true,6,2,-0.00138579277003169,'пластик_металл',true,true,false,Китай,'поддержание_температуры'
false,-0.03560102663413282,false,0.009921510798529376,-0.2616655142854343,0.12899277480470206,OneYear,false,'1',false,false,false,false,false,false,1,?,0.129382652254913,'пластик_стекло',true,true,false,Китай,'?'
false,-0.03736980434868815,true,-0.6096231153794601,-0.027147586444502582,-0.21454796649554478,HalfYear,false,'0.8',false,false,false,false,true,true,1,1,0.129382652254913,'металл',true,true,false,Китай,'?'
false,-0.040317767206280365,true,0.21643638619119257,-0.9652192978082293,-0.9016294490960385,TwoYears,false,'0.8',false,false,false,false,true,true,1,1,-0.00138579277003169,'пластик',true,true,false,Китай,'?'
false,-0.03442184149109593,true,-0.6715775779972593,0.3480810981009885,0.19770092306475118,OneYear,false,'0.7',false,false,false,false,true,true,1,1,-0.00138579277003169,'пластик_металл',true,true,false,Китай,'?'
false,-0.03442184149109593,true,0.009921510798529376,-0.9652192978082293,-1.0733998197461618,TwoYears,false,'1',false,false,false,false,true,true,1,1,-0.00138579277003169,'сталь',true,true,false,Китай,'?'
false,-0.02852591577591149,true,0.6294661369765189,0.2073703413964291,0.47253351610494887,OneYear,false,'0.8',false,false,false,false,true,true,1,2,-0.00138579277003169,'пластик',true,true,false,Китай,'?'
false,-0.004942212915173742,true,-0.403108239986797,0.2073703413964291,-0.5580887077957917,TwoYears,false,'0.85',false,false,false,true,true,true,7,1,-0.00138579277003169,'стекло',true,true,false,Китай,'поддержание_температуры'
false,-0.03795939692020659,true,0.2783908488089917,-0.7307013699672976,-0.21454796649554478,HalfYear,false,'0.8',false,false,false,false,false,true,1,2,0.129382652254913,'сталь',true,true,false,Китай,'?'
false,-0.03568946551986059,false,0.009921510798529376,-0.2616655142854343,0.12899277480470206,OneYear,false,'1',false,false,false,false,false,false,1,?,0.129382652254913,'пластик_стекло',true,true,false,Китай,'?'
false,-0.02557795291831927,true,-0.6096231153794601,0.2073703413964291,-0.042777595845421366,OneYear,false,'0.7',false,false,false,false,true,true,1,1,-0.00138579277003169,'пластик_стекло',true,true,false,Китай,'?'
false,-0.03442184149109593,true,-0.6096231153794601,-0.7307013699672976,-0.21454796649554478,OneYear,false,'0.7',false,false,false,false,true,true,1,1,-0.00138579277003169,'стекло_металл',true,true,false,Китай,'?'
false,-0.022629990060727054,true,?,?,?,TwoYears,false,'0.8',false,false,false,false,true,true,1,2,-0.00138579277003169,'пластик_сталь',true,false,false,Китай,'?'
false,32.216291820567776,true,0.21643638619119257,-0.027147586444502582,-1.2451701903962853,OneYear,false,'0.5',false,false,false,false,true,true,1,1,0.129382652254913,'пластик_сталь',true,true,false,Китай,'?'
false,-0.03736980434868815,true,0.6294661369765189,0.4418882692373608,-1.5887109316965322,OneYear,false,'0.8',false,false,false,false,true,true,1,2,-0.00138579277003169,'пластик',true,false,false,Китай,'?'
false,-0.027346730632874603,false,0.42295126158385576,-0.9417675050241359,0.19770092306475118,OneYear,false,'0.8',false,false,true,true,true,true,6,1,-0.00138579277003169,'стекло',true,false,false,Китай,'поддержание_температуры'
false,-0.03736980434868815,true,?,?,?,TwoYears,false,'0.65',false,false,false,false,true,true,1,1,-0.00138579277003169,'пластик',true,true,false,Китай,'?'
false,-0.031768674919262926,true,0.11317894849486097,-0.14440655036496844,0.12899277480470206,OneYear,false,?,false,false,false,false,true,true,1,1,0.129382652254913,'стекло',true,false,false,Китай,'?'
false,-0.03442184149109593,true,-0.2998508022904654,0.2073703413964291,-0.21454796649554478,OneYear,false,'0.7',false,false,false,true,true,false,1,1,-0.00138579277003169,'сталь',true,true,false,Китай,'?'
false,-0.03442184149109593,true,0.11317894849486097,-0.6134424060468319,-0.729859078445915,TwoYears,false,'0.8',false,false,false,false,true,true,1,1,-0.00138579277003169,'сталь',true,true,false,Китай,'?'
false,-0.02961666203322061,false,0.6294661369765189,-0.7307013699672976,0.6443038867550723,OneYear,false,'1',false,false,false,false,false,true,1,?,0.129382652254913,'пластик_сталь',true,true,false,Китай,'?'
false,-0.03271202303369244,false,0.11317894849486097,-0.14440655036496844,-0.042777595845421366,OneYear,false,'1',false,false,false,false,false,false,1,?,0.129382652254913,'пластик_стекло',true,true,false,Китай,'?'
false,-0.02557795291831927,false,-0.6096231153794601,0.2073703413964291,-0.042777595845421366,OneYear,false,'0.75',false,false,false,false,true,true,1,1,-0.00138579277003169,'стекло',true,true,false,Китай,'?'
false,-0.040317767206280365,true,0.21643638619119257,-0.9652192978082293,-0.9016294490960385,TwoYears,false,'0.8',false,false,false,false,true,true,1,1,-0.00138579277003169,'пластик',true,true,false,Китай,'?'
false,-0.03972817463476192,true,-0.6096231153794601,-0.027147586444502582,-0.9016294490960385,TwoYears,false,'0.75',false,false,false,false,true,true,1,1,-0.00138579277003169,'пластик',true,true,false,Китай,'?'
false,-0.031473878633503705,true,-0.8161379907721233,-0.2616655142854343,-0.9016294490960385,OneYear,false,'0.7',false,false,false,false,true,true,1,1,-0.00138579277003169,'сталь',true,true,false,Китай,'?'
false,-0.016734064345542612,true,0.691420599594318,-0.7072495771832041,0.33511721958485063,OneYear,false,'1',false,false,false,false,true,true,1,1,-0.00138579277003169,'пластик_сталь',true,true,false,Китай,'поддержание_температуры'
false,-0.031473878633503705,true,0.6294661369765189,-0.49618344212636595,-0.042777595845421366,OneYear,false,'0.8',false,false,false,false,true,true,1,1,-0.00138579277003169,'пластик_стекло',true,true,false,Китай,'?'
false,-0.031591797147807396,true,0.21643638619119257,-0.027147586444502582,-1.2451701903962853,OneYear,false,'0.5',false,false,false,false,true,true,1,1,0.129382652254913,'пластик_сталь',true,true,false,Китай,'?'
false,-0.035306230348373595,true,1.2490107631545084,2.3180316919648143,5.969185376908898,OneYear,false,'1.2',false,false,false,false,true,true,1,1,-0.00138579277003169,'пластик',true,true,false,Китай,'?'
false,-0.02852591577591149,true,0.5262086992801873,0.32462930531689493,0.12899277480470206,TwoYears,false,'0.8',false,false,false,false,true,true,1,1,-0.00138579277003169,'пластик_стекло',true,true,false,Китай,'?'
false,-0.03442184149109593,true,0.11317894849486097,-1.4342551534900927,-0.3863183371456682,OneYear,false,'1.5',false,false,false,false,true,true,1,1,-0.00138579277003169,'пластик',true,true,false,Китай,'?'
false,-0.02852591577591149,true,0.5262086992801873,0.32462930531689493,0.12899277480470206,TwoYears,false,'0.8',false,false,false,false,true,true,1,1,-0.00138579277003169,'пластик_стекло',true,true,false,Китай,'?'
false,-0.03442184149109593,true,0.009921510798529376,-0.9652192978082293,-0.9016294490960385,TwoYears,false,'0.8',false,false,false,false,true,true,1,1,-0.00138579277003169,'сталь',true,true,false,Китай,'?'
false,-0.00612139805821063,true,0.9392384500655137,1.0281830888396901,4.766792782358034,TwoYears,false,'0.6',true,false,false,false,true,true,1,1,0.129382652254913,'сталь',true,true,false,Китай,'поддержание_температуры_заваривание_чая'
false,-0.02852591577591149,false,-0.6096231153794601,0.4184364764532673,1.0909068504453934,OneYear,false,'0.75',false,false,false,false,false,true,1,?,-0.00138579277003169,'пластик',true,true,false,Китай,'?'
false,-0.02705193434711538,true,?,?,?,OneYear,false,'0.7',false,false,false,true,true,true,4,1,0.129382652254913,'пластик_стекло',true,false,false,Китай,'поддержание_температуры'
false,-0.016734064345542612,true,0.691420599594318,-0.7072495771832041,0.33511721958485063,OneYear,false,'1',false,false,false,false,true,true,1,1,-0.00138579277003169,'пластик_сталь',true,true,false,Китай,'?'
false,-0.02705193434711538,false,?,?,?,OneYear,false,'0.7',false,false,false,true,true,true,4,?,0.129382652254913,'пластик_металл',true,false,false,Китай,'поддержание_температуры'
false,-0.03766460063444736,true,0.31969382388752415,-0.7307013699672976,-0.042777595845421366,OneYear,false,'1.5',false,false,false,false,false,true,1,1,0.129382652254913,'сталь',true,true,false,Китай,'?'
false,-0.03280046191942021,true,0.009921510798529376,-0.49618344212636595,0.12899277480470206,OneYear,false,'1',false,false,false,false,false,true,1,1,0.3909195423048021,'пластик_сталь',true,true,false,Китай,'?'
false,-0.03442184149109593,true,0.009921510798529376,-1.199737225649161,-0.21454796649554478,TwoYears,false,'0.8',false,false,false,false,true,false,1,1,-0.26292268281992076,'пластик_сталь',true,true,false,Китай,'?'
false,-0.03442184149109593,true,-0.19659336459413382,-0.2616655142854343,-0.5580887077957917,OneYear,false,'0.7',false,false,false,false,true,true,1,1,-0.00138579277003169,'пластик',true,true,false,Китай,'?'
false,-0.02557795291831927,true,?,?,?,OneYear,false,'1',false,false,false,false,true,true,1,1,-0.00138579277003169,'пластик_стекло_металл',true,true,false,Китай,'?'
false,-0.022629990060727054,true,-0.2998508022904654,0.5356954403737332,0.4381794419749237,OneYear,false,'0.8',false,false,false,false,true,false,?,1,-0.00138579277003169,'сталь',true,true,false,Китай,'?'
false,-0.03736980434868815,false,0.5262086992801873,-1.316996189569627,-0.35196426301564304,OneYear,false,'0.75',false,false,false,false,true,true,1,?,0.129382652254913,'пластик_сталь_стекло',true,true,false,Китай,'?'
false,-0.04282353563523375,true,0.21643638619119257,-0.7307013699672976,-0.21454796649554478,OneYear,false,'1',false,false,false,false,false,true,1,1,0.129382652254913,'пластик_сталь',true,true,false,Китай,'?'
false,-0.028614354661639255,false,0.21643638619119257,-0.027147586444502582,0.30076314545482546,OneYear,false,'1',false,false,false,false,false,true,1,?,-0.26292268281992076,'пластик_стекло',true,true,false,Китай,'?'
false,-0.03442184149109593,true,0.5262086992801873,-0.6134424060468319,-0.3863183371456682,TwoYears,false,'1.2',false,false,false,true,true,true,1,?,-0.00138579277003169,'пластик_металл',true,true,false,Китай,'?'
false,-0.04473971149266869,false,?,?,?,OneYear,false,?,false,false,false,false,false,true,1,?,-0.00138579277003169,'пластик_стекло',false,true,false,Китай,'?'
false,-0.03501143406261437,true,0.31969382388752415,-0.6134424060468319,0.8160742574051957,OneYear,false,'0.5',false,false,false,false,false,true,1,2,0.7832248773796355,'пластик_сталь',true,true,false,Китай,'?'
false,-0.03442184149109593,true,-0.7128805530757918,0.32462930531689493,0.19770092306475118,OneYear,false,'0.6',false,false,true,false,true,true,1,1,-0.00138579277003169,'пластик_сталь_стекло',true,true,false,Китай,'?'
false,-0.03442184149109593,true,0.21643638619119257,-0.37892447820590014,0.12899277480470206,TwoYears,false,'0.8',false,false,false,false,true,true,1,1,-0.00138579277003169,'пластик_стекло',true,true,false,Китай,'?'
false,-0.03442184149109593,true,0.31969382388752415,-0.6134424060468319,0.12899277480470206,TwoYears,false,'0.8',false,false,false,false,true,true,1,2,-0.26292268281992076,'сталь',true,false,false,Китай,'?'
false,-0.03442184149109593,true,0.6294661369765189,0.09011137747596326,0.47253351610494887,TwoYears,false,'0.8',false,false,false,false,true,true,1,1,-0.00138579277003169,'стекло',true,true,false,Китай,'?'
false,-0.024693564061041604,false,0.6294661369765189,-0.49618344212636595,1.1596149987054425,OneYear,false,'0.6',false,false,false,false,false,true,1,1,-0.00138579277003169,'пластик_стекло',true,false,false,Китай,'?'
false,-0.02557795291831927,false,0.6294661369765189,-0.49618344212636595,0.8160742574051957,OneYear,false,'0.6',false,false,false,true,true,true,6,1,-0.00138579277003169,'пластик_сталь',true,false,false,Китай,'поддержание_температуры'
false,-0.02852591577591149,true,0.42295126158385576,-0.6134424060468319,-0.3863183371456682,TwoYears,false,'0.9',false,true,false,true,true,true,1,1,-0.00138579277003169,'сталь',true,true,false,Китай,'?'
false,-0.036780211777169704,false,-0.6922290655365255,0.32462930531689493,0.19770092306475118,OneYear,false,'0.7',false,false,false,false,true,true,1,1,-0.00138579277003169,'сталь',true,true,false,Китай,'?'
false,-0.02941030463318916,false,0.21643638619119257,0.6764061970782925,1.1596149987054425,TwoYears,false,'0.7',false,false,false,false,true,true,1,?,-0.00138579277003169,'пластик_сталь',true,true,false,Китай,'?'
false,-0.03442184149109593,true,0.31969382388752415,-0.7307013699672976,0.12899277480470206,TwoYears,false,'0.8',false,false,false,false,true,true,1,1,-0.00138579277003169,'пластик',true,true,false,Китай,'?'
false,-0.03736980434868815,true,0.21643638619119257,-1.059026468944602,-0.3863183371456682,OneYear,false,'0.75',false,false,true,true,true,true,1,1,-0.00138579277003169,'пластик',true,true,false,Китай,'?'
false,-0.03442184149109593,true,0.009921510798529376,-0.9652192978082293,-1.0733998197461618,TwoYears,false,'1',false,false,false,false,true,true,1,1,-0.00138579277003169,'сталь',true,true,false,Китай,'?'
false,-0.02852591577591149,true,0.42295126158385576,-0.6134424060468319,-0.3863183371456682,TwoYears,false,'0.9',false,true,false,true,true,true,1,1,-0.00138579277003169,'сталь',true,true,false,Китай,'?'
false,-0.03766460063444736,false,0.21643638619119257,-0.49618344212636595,-0.5580887077957917,OneYear,false,'1',false,false,false,false,false,true,1,?,-0.1321542377949761,'пластик_сталь',true,true,false,Китай,'?'
false,-0.040317767206280365,true,0.11317894849486097,-0.6134424060468319,-0.729859078445915,TwoYears,false,'0.8',false,false,false,false,true,true,1,1,-0.00138579277003169,'сталь',true,true,false,Китай,'?'
false,-0.03766460063444736,true,0.31969382388752415,-0.7307013699672976,-0.042777595845421366,OneYear,false,'1.5',false,false,false,false,false,true,1,1,0.129382652254913,'сталь',true,true,false,Китай,'?'
false,-0.03736980434868815,true,0.9392384500655137,-0.2616655142854343,-0.042777595845421366,OneYear,false,'0.8',false,false,false,false,true,false,1,1,-0.00138579277003169,'пластик',true,true,false,Китай,'?'
false,-0.040317767206280365,true,0.42295126158385576,-0.8948639194559497,-0.21454796649554478,OneYear,false,'0.75',false,false,true,false,true,true,1,1,-0.00138579277003169,'пластик',true,true,false,Китай,'?'
false,-0.03268254340511652,false,0.11317894849486097,-0.14440655036496844,-0.042777595845421366,OneYear,false,'1',false,false,false,false,false,false,1,?,0.129382652254913,'пластик_стекло',true,true,false,Китай,'?'
false,-0.02557795291831927,true,-0.6096231153794601,0.2073703413964291,-0.042777595845421366,OneYear,false,'0.7',false,false,false,false,true,true,1,1,-0.00138579277003169,'стекло',true,true,false,Китай,'?'
false,-0.028614354661639255,true,0.21643638619119257,-0.027147586444502582,0.30076314545482546,OneYear,false,'1',false,false,false,false,true,true,1,1,-0.26292268281992076,'пластик_стекло',true,true,false,Китай,'?'
false,-0.03265306377654059,false,0.009921510798529376,-0.49618344212636595,0.12899277480470206,OneYear,false,'1',false,false,false,false,false,true,1,?,0.3909195423048021,'пластик_сталь',false,true,false,Китай,'?'
false,-0.03442184149109593,true,-0.19659336459413382,0.4418882692373608,1.1596149987054425,TwoYears,false,'0.72',false,false,false,false,true,true,1,1,-0.26292268281992076,'пластик_металл',true,true,false,Китай,'?'
false,-0.03412704520533671,false,0.2783908488089917,0.2308221341805226,1.400093517615615,TwoYears,false,'0.8',false,false,true,true,false,false,1,1,-1.047533352969588,'сталь',true,true,false,Китай,'поддержание_температуры'
false,-0.03206347120502215,false,-0.19659336459413382,0.6764061970782925,-0.9016294490960385,TwoYears,false,'0.7',false,false,false,false,true,true,1,1,-0.00138579277003169,'пластик',true,true,false,Китай,'?'
false,-0.031473878633503705,false,?,?,?,TwoYears,false,'0.65',false,false,false,false,false,true,1,?,-0.00138579277003169,'сталь',true,false,false,Китай,'?'
false,-0.012312120059154288,true,0.42295126158385576,5.83580060957879,0.8160742574051957,OneYear,false,'0.7',true,false,false,false,true,true,1,1,0.3909195423048021,'пластик_стекло',true,true,false,Китай,'заваривание_чая'
false,-0.03736980434868815,true,0.21643638619119257,-1.059026468944602,-0.3863183371456682,OneYear,false,'0.75',false,false,true,true,true,true,1,1,-0.00138579277003169,'пластик',true,true,false,Китай,'?'
false,-0.031473878633503705,true,-0.8161379907721233,-0.2616655142854343,-0.9016294490960385,OneYear,false,'0.7',false,false,false,false,true,true,1,1,-0.00138579277003169,'сталь',true,true,false,Китай,'?'
false,-0.03736980434868815,true,-0.19659336459413382,-0.9652192978082293,-0.3863183371456682,OneYear,false,'0.7',false,false,false,false,true,true,1,1,-0.00138579277003169,'пластик',true,true,false,Китай,'?'
false,-0.02823111949015227,false,0.5055572117409207,-0.9652192978082293,0.30076314545482546,OneYear,false,'0.8',false,false,false,false,true,false,1,2,-0.00138579277003169,'пластик_металл',true,true,false,Китай,'?'
false,-0.004942212915173742,false,-0.8161379907721233,-1.199737225649161,0.12899277480470206,OneYear,false,'1',false,false,false,false,true,true,1,1,-0.00138579277003169,'металл',true,true,true,Китай,'?'
true,-0.03206347120502215,true,-0.6509260904579927,0.3480810981009885,0.19770092306475118,OneYear,false,'0.85',false,false,true,false,true,true,1,1,-0.00138579277003169,'стекло',true,true,false,Китай,'?'
false,-0.02852591577591149,true,0.21643638619119257,-0.027147586444502582,0.8160742574051957,TwoYears,false,'0.72',false,false,false,false,true,true,1,1,-0.00138579277003169,'сталь',true,false,false,Китай,'?'
false,-0.036780211777169704,true,0.42295126158385576,0.2073703413964291,0.8160742574051957,OneYear,false,'0.7',false,false,true,false,true,true,1,2,-0.00138579277003169,'сталь',true,true,false,Китай,'?'
false,-0.040317767206280365,true,-0.19659336459413382,-0.9652192978082293,-0.21454796649554478,OneYear,false,'0.75',false,false,false,false,false,true,1,2,0.129382652254913,'пластик_сталь',true,true,false,Китай,'?'
false,-0.03736980434868815,false,0.8359810123691821,-0.9652192978082293,-0.3863183371456682,OneYear,false,'1',false,true,true,false,true,true,1,1,-0.00138579277003169,'металл',false,false,false,Китай,'?'
false,-0.03442184149109593,false,0.21643638619119257,-0.9652192978082293,-0.5580887077957917,OneYear,false,'1',false,false,false,true,false,true,1,1,-0.00138579277003169,'пластик_металл',true,true,false,Китай,'?'
false,-0.03442184149109593,false,0.17513341111266006,2.083513764123883,-1.3825864869163835,OneYear,false,'0.7',false,false,true,true,false,true,61,1,-1.1783017979945327,'сталь',true,true,false,Китай,'поддержание_температуры'
false,-0.022629990060727054,true,?,?,?,OneYear,false,'0.8',false,false,false,false,true,true,1,1,-0.26292268281992076,'стекло_металл',true,true,false,Китай,'?'
false,-0.03442184149109593,false,-0.6922290655365255,0.6060508187260129,0.47253351610494887,OneYear,false,'0.75',false,false,true,true,true,true,1,?,-0.00138579277003169,'сталь',true,true,false,Китай,'?'
false,-0.045329304064187136,false,-0.6096231153794601,0.6764061970782925,-0.5580887077957917,OneYear,false,?,false,false,false,false,false,true,?,1,0.129382652254913,'сталь',true,true,false,Китай,'?'
false,-0.0462136929214648,false,0.21643638619119257,-1.316996189569627,-0.042777595845421366,OneYear,false,'0.8',false,false,false,false,false,true,1,1,0.129382652254913,'пластик_сталь',true,true,false,Китай,'?'
false,-0.03442184149109593,true,-1.1259103038611182,-0.7307013699672976,-0.729859078445915,OneYear,false,'1',true,false,false,true,true,true,1,1,-1.5706071330693665,'пластик_сталь',true,true,false,Китай,'поддержание_температуры_заваривание_чая'
false,-0.03736980434868815,false,0.6294661369765189,-0.49618344212636595,0.47253351610494887,OneYear,false,'0.7',false,false,false,false,false,true,1,2,0.3909195423048021,'пластик_сталь',true,true,false,Китай,'?'
false,-0.03442184149109593,true,-0.5889716278401935,0.4653400620214543,0.30076314545482546,OneYear,false,'1',false,false,false,false,true,true,1,1,0.3909195423048021,'пластик_стекло',true,true,false,Китай,'?'
false,-0.02336698077512511,false,0.11317894849486097,-0.14440655036496844,0.23205499719477635,OneYear,false,'1',false,false,false,false,true,true,1,1,-0.00138579277003169,'металл',true,true,false,Китай,'?'
false,-0.03919754132039532,false,0.31969382388752415,-0.8479603338877635,-0.5580887077957917,OneYear,false,'1',false,false,false,false,false,true,1,?,0.129382652254913,'пластик_сталь',true,true,false,Китай,'?'
false,-0.03574842477701242,true,0.6294661369765189,-0.7307013699672976,1.5031557400056894,TwoYears,false,'0.76',false,false,false,false,false,true,1,1,1.0447617674295249,'сталь',true,false,false,Китай,'?'
false,-0.02852591577591149,false,-0.5476686527616611,0.32462930531689493,0.40382536784489975,OneYear,false,'0.7',false,false,false,false,true,true,1,2,-0.00138579277003169,'пластик_сталь',true,true,false,Китай,'?'
false,-0.03442184149109593,false,-0.19659336459413382,-0.2616655142854343,-0.5580887077957917,OneYear,false,'0.7',false,false,false,false,true,true,1,?,-0.00138579277003169,'пластик',true,true,false,Китай,'?'
false,-0.03736980434868815,false,0.38164828650532323,0.488791854805547,-2.1040220436469026,TwoYears,false,'0.9',false,true,false,false,false,true,1,1,-0.00138579277003169,'пластик',true,true,false,Китай,'?'
false,-0.03088428606198526,true,1.3935711759293725,0.11356317026005677,1.5718638882657385,TwoYears,false,'0.72',false,false,true,true,true,true,7,1,0.129382652254913,'пластик_стекло',true,false,false,Китай,'поддержание_температуры'
false,-0.0462136929214648,true,-0.4237597275260636,-1.3873515679219066,-1.7261272282166304,TwoYears,false,'0.8',false,true,false,false,true,true,1,1,-1.5706071330693665,'пластик',true,true,false,Китай,'шумоподавление'
false,-0.032947860062299814,false,-0.4650627026045961,2.177320935260255,-1.1764620421362362,OneYear,false,'0.7',false,false,false,true,false,true,1,1,-1.1783017979945327,'сталь',true,true,false,Китай,'?'
false,-0.016734064345542612,false,0.6294661369765189,4.076916150771802,0.8160742574051957,OneYear,false,'0.7',true,false,false,false,true,true,1,1,0.3909195423048021,'пластик_сталь_стекло',true,true,false,Китай,'поддержание_температуры_заваривание_чая'
false,-0.010543342344598956,false,0.6294661369765189,4.076916150771802,0.6443038867550723,OneYear,false,'0.7',true,false,false,false,true,true,1,1,0.3909195423048021,'пластик_сталь_стекло',true,true,false,Китай,'поддержание_температуры_заваривание_чая'
false,-0.03088428606198526,false,-0.19659336459413382,0.6764061970782925,-0.9016294490960385,TwoYears,false,'0.7',false,false,false,false,true,true,1,1,-0.00138579277003169,'пластик',true,true,false,Китай,'?'
false,-0.031473878633503705,true,0.42295126158385576,-0.7307013699672976,-0.9016294490960385,OneYear,false,'0.7',false,false,false,true,true,true,1,1,-0.00138579277003169,'сталь',true,true,false,Китай,'?'
false,-0.041791748635076474,true,0.5262086992801873,0.4418882692373608,-2.791103526247396,OneYear,false,'0.75',false,false,false,false,true,true,1,1,-0.00138579277003169,'пластик',true,true,false,Россия,'?'
false,-0.03943337834900269,false,-0.6922290655365255,0.25427392696461526,0.06028462654465293,OneYear,false,'0.7',false,false,false,false,false,true,1,1,-0.00138579277003169,'пластик',true,true,false,Китай,'?'
false,-0.02204039748920861,false,-0.7335320406150581,1.3799599806010876,-0.5580887077957917,OneYear,false,'0.75',false,true,false,true,true,true,1,1,-0.00138579277003169,'сталь',true,true,false,Китай,'шумоподавление'
false,-0.040317767206280365,false,0.009921510798529376,-1.6687730813310244,-0.5580887077957917,TwoYears,false,'0.8',false,false,false,false,false,true,1,1,-0.00138579277003169,'пластик',true,true,false,Китай,'?'
false,-0.03736980434868815,false,-0.5063656776831286,0.488791854805547,0.47253351610494887,OneYear,false,'0.7',false,false,false,true,false,true,7,1,-0.00138579277003169,'сталь',true,true,false,Китай,'поддержание_температуры'
false,-0.04326573006387258,true,0.42295126158385576,-0.9652192978082293,-0.9016294490960385,OneYear,false,'0.8',false,false,false,false,true,true,1,?,-0.00138579277003169,'пластик_металл',true,true,false,Китай,'?'
false,-0.02852591577591149,true,?,?,?,TwoYears,false,'0.78',false,false,false,false,false,true,1,2,-0.26292268281992076,'пластик_сталь',true,true,false,Китай,'?'
false,-0.03442184149109593,true,0.6294661369765189,-0.14440655036496844,-1.4169405610464088,TwoYears,false,'0.8',false,false,false,true,true,true,1,1,-0.00138579277003169,'сталь',true,true,false,Китай,'?'
false,-0.03442184149109593,true,0.42295126158385576,-0.9652192978082293,0.12899277480470206,TwoYears,false,'0.71',false,false,false,false,true,true,1,1,0.129382652254913,'металл',true,true,false,Китай,'?'
false,-0.03560102663413282,true,?,?,?,TwoYears,false,'0.75',false,false,false,false,true,true,1,1,-0.00138579277003169,'сталь',true,false,false,Китай,'?'
false,-0.02961666203322061,true,0.8359810123691821,0.4418882692373608,-1.932251672996779,OneYear,false,'0.8',false,false,false,true,true,true,5,1,-0.00138579277003169,'пластик_стекло_металл',true,true,false,Китай,'?'
false,-0.02557795291831927,false,0.42295126158385576,0.2073703413964291,-0.21454796649554478,OneYear,false,'0.7',false,false,false,false,true,true,1,?,-0.00138579277003169,'пластик_стекло',true,true,false,Китай,'?'
false,-0.027936323204393047,true,-0.19659336459413382,0.2073703413964291,-0.21454796649554478,OneYear,false,'1.4',false,false,false,false,true,true,1,1,-0.00138579277003169,'пластик_стекло',true,true,false,Китай,'?'
false,-0.03736980434868815,true,?,?,?,TwoYears,false,'1.2',false,false,false,true,true,true,1,1,-0.00138579277003169,'металл',true,true,false,Китай,'?'
false,-0.041791748635076474,true,?,?,?,OneYear,false,'0.75',false,false,false,false,true,true,1,1,-0.00138579277003169,'пластик_сталь',true,true,false,Китай,'?'
false,-0.031473878633503705,true,5.379308271007772,3.6078802950899385,8.373970566010627,TwoYears,false,?,false,false,false,true,true,true,7,1,-0.00138579277003169,'сталь',true,true,false,Китай,'поддержание_температуры'
false,-0.010838138630358178,true,-0.48571419014386197,-0.28511730706952776,-0.7642131525759402,TwoYears,false,?,true,false,true,true,true,true,5,?,-0.9167649079446436,'сталь_стекло',true,true,false,Китай,'поддержание_температуры_заваривание_чая'
false,-0.031473878633503705,true,-0.09333592689780222,-0.7307013699672976,-0.3863183371456682,OneYear,false,'1',false,false,false,false,true,true,7,2,-0.00138579277003169,'сталь',true,true,false,Китай,'поддержание_температуры'
false,-0.02174560120344939,true,-0.2998508022904654,0.2073703413964291,0.30076314545482546,OneYear,false,'0.8',false,false,false,false,true,false,1,1,0.129382652254913,'пластик_стекло',true,true,false,Китай,'?'
false,-0.03501143406261437,false,?,?,?,OneYear,false,?,false,false,false,false,true,true,1,?,-0.00138579277003169,'сталь',true,true,false,Китай,'?'
false,-0.031473878633503705,true,?,?,?,OneYear,false,'0.7',false,false,false,false,true,true,1,1,0.129382652254913,'стекло',false,false,false,Китай,'?'
false,-0.038254193205965806,true,-0.403108239986797,-0.7307013699672976,-0.21454796649554478,OneYear,false,'0.6',false,false,false,false,true,true,1,1,0.129382652254913,'сталь',true,false,false,Китай,'?'
false,-0.031473878633503705,true,0.21643638619119257,-0.7307013699672976,-0.21454796649554478,OneYear,false,'0.71',false,false,false,false,true,true,1,1,-0.00138579277003169,'пластик',true,true,false,Китай,'?'
false,-0.03442184149109593,false,-0.6096231153794601,-0.7307013699672976,-0.21454796649554478,OneYear,false,'0.7',false,false,false,false,true,true,1,?,-0.00138579277003169,'стекло_металл',false,false,false,Китай,'?'
false,-0.03442184149109593,true,?,?,?,OneYear,false,?,false,true,true,true,true,true,7,2,-0.00138579277003169,'сталь',true,true,false,Китай,'поддержание_температуры'
false,-0.028083721347272654,true,?,?,?,OneYear,false,?,false,false,false,false,true,true,1,1,-0.00138579277003169,'стекло',true,true,false,Китай,'?'
false,-0.02705193434711538,false,?,?,?,OneYear,false,?,false,false,false,false,true,true,1,?,-0.00138579277003169,'стекло_металл',true,false,false,Китай,'?'
false,-0.016734064345542612,false,0.691420599594318,-0.7072495771832041,0.33511721958485063,OneYear,false,?,false,false,false,false,true,true,?,?,-0.00138579277003169,'пластик_сталь',true,true,false,Китай,'?'
false,-0.03736980434868815,true,-0.19659336459413382,-0.9652192978082293,-0.9016294490960385,OneYear,false,'0.7',false,false,false,false,true,true,1,1,-0.00138579277003169,'пластик',false,false,false,Китай,'?'
false,-0.031473878633503705,true,-0.19659336459413382,0.32462930531689493,-0.042777595845421366,OneYear,false,'1.2',false,false,false,false,true,true,1,1,-0.00138579277003169,'пластик_стекло',true,true,false,Китай,'?'
false,-0.040317767206280365,false,?,?,?,TwoYears,false,?,false,false,false,false,false,true,1,?,0.129382652254913,'пластик_сталь',true,false,false,Китай,'?'
false,-0.035306230348373595,false,-0.403108239986797,-0.027147586444502582,-0.5580887077957917,OneYear,false,'1.4',false,false,false,false,true,true,1,?,-0.00138579277003169,'пластик',true,true,false,Китай,'?'
false,-0.040317767206280365,false,-0.8161379907721233,-1.199737225649161,-1.2451701903962853,OneYear,false,'1',false,false,false,false,false,true,1,?,-0.9167649079446436,'сталь',false,true,false,Китай,'?'
false,-0.02852591577591149,true,-0.3618052649082645,0.5356954403737332,0.06028462654465293,TwoYears,false,'0.7',false,false,false,false,true,true,1,1,-0.00138579277003169,'пластик_стекло',true,true,false,Китай,'?'
false,-0.02410397148952316,true,-0.403108239986797,0.4418882692373608,0.47253351610494887,TwoYears,false,'0.76',false,false,false,false,true,true,1,2,-0.00138579277003169,'пластик_сталь',true,true,false,Китай,'?'
false,-0.02027161977465328,true,0.7327235746728505,-0.7307013699672976,0.47253351610494887,TwoYears,false,'0.73',false,false,false,false,true,true,1,2,-0.00138579277003169,'пластик_сталь',true,true,false,Китай,'поддержание_температуры'
false,-0.03206347120502215,true,-0.6096231153794601,0.2073703413964291,-0.042777595845421366,TwoYears,false,'0.7',false,false,false,false,true,true,1,1,-0.00138579277003169,'пластик_стекло',true,true,false,Китай,'?'
false,-0.031473878633503705,true,?,?,?,OneYear,false,'0.6',false,false,false,false,true,true,1,1,-0.00138579277003169,'стекло',true,false,false,Китай,'?'
false,-0.03442184149109593,true,-0.7748350156935908,-0.027147586444502582,-1.2451701903962853,OneYear,false,?,false,false,true,false,true,true,?,2,-1.1783017979945327,'пластик',true,true,false,Китай,'?'
false,-0.027641526918633825,false,?,?,?,OneYear,false,?,false,false,false,false,false,true,1,?,0.129382652254913,'пластик_сталь',true,false,false,Китай,'?'
false,-0.031473878633503705,true,?,?,?,OneYear,false,'0.75',false,false,false,false,true,true,1,1,-0.00138579277003169,'стекло',true,false,false,Китай,'?'
false,-0.03442184149109593,true,0.21643638619119257,-0.9652192978082293,-0.9016294490960385,OneYear,false,'0.7',false,false,false,false,true,true,1,?,-0.00138579277003169,'сталь',true,true,false,Китай,'?'
false,-0.02557795291831927,true,-0.8161379907721233,0.4418882692373608,-0.042777595845421366,TwoYears,false,?,false,false,false,true,true,true,5,2,-0.00138579277003169,'пластик',true,true,false,Китай,'поддержание_температуры'
false,-0.03442184149109593,true,0.11317894849486097,-0.9652192978082293,-0.729859078445915,OneYear,false,'0.8',false,false,false,false,true,true,1,1,0.129382652254913,'стекло',true,true,false,Китай,'?'
false,-0.029115508347429934,true,-0.19659336459413382,0.2073703413964291,-0.21454796649554478,OneYear,false,'1.4',false,false,false,false,true,true,1,1,-0.00138579277003169,'пластик_стекло',true,true,false,Китай,'?'
false,-0.026167545489837716,false,1.6620405139398349,-0.2616655142854343,-1.5887109316965322,OneYear,false,'1',false,false,false,false,true,true,1,1,0.129382652254913,'пластик_стекло',true,true,false,Китай,'?'
false,-0.022629990060727054,false,?,?,?,TwoYears,false,'0.8',false,false,false,false,true,true,1,?,-0.00138579277003169,'пластик_сталь',true,false,false,Китай,'?'
false,-0.02557795291831927,true,?,?,?,OneYear,false,?,false,false,false,false,true,true,1,1,-0.00138579277003169,'стекло',true,true,false,Китай,'?'
false,-0.03619061920565126,false,-0.11398741443706882,1.0281830888396901,0.2664090713248003,OneYear,false,'0.7',false,false,false,false,false,true,1,1,-0.9167649079446436,'сталь',true,true,false,Китай,'?'
false,-0.03442184149109593,false,-0.7748350156935908,-0.027147586444502582,-1.2451701903962853,OneYear,false,?,false,false,false,false,true,true,?,?,-1.1783017979945327,'пластик',true,true,false,Китай,'?'
false,-0.029115508347429934,true,-0.7541835281543242,0.488791854805547,0.30076314545482546,OneYear,false,'0.75',false,false,true,true,true,true,1,2,-0.00138579277003169,'пластик_стекло',true,true,false,Китай,'?'
false,-0.016144471774024168,false,1.5587830762435033,0.6295026115101063,2.190237222606183,TwoYears,false,'0.77',false,false,false,false,false,true,1,1,3.2678253328535822,'сталь',true,false,false,Китай,'?'
false,-0.022629990060727054,true,0.42295126158385576,-0.7307013699672976,-0.5580887077957917,OneYear,false,'1',true,false,false,true,true,true,4,1,-0.26292268281992076,'стекло',true,true,false,Китай,'поддержание_температуры_заваривание_чая'
false,-0.027641526918633825,false,0.6294661369765189,-0.2616655142854343,0.6443038867550723,OneYear,false,'0.65',false,false,false,false,true,true,1,1,0.129382652254913,'пластик_стекло',true,true,false,Китай,'?'
false,-0.031768674919262926,false,-0.6715775779972593,0.25427392696461526,1.0221987021853443,OneYear,false,'0.6',false,false,true,true,false,true,7,2,-0.00138579277003169,'пластик_сталь',true,true,false,Китай,'поддержание_температуры'
false,-0.02970510091894838,false,-0.6922290655365255,0.32462930531689493,0.19770092306475118,OneYear,false,'0.7',false,false,false,false,true,true,1,1,-0.00138579277003169,'сталь',true,true,false,Китай,'?'
false,-0.024988360346800825,true,0.9392384500655137,-0.14440655036496844,0.6443038867550723,OneYear,false,'1',false,false,false,false,true,true,1,1,0.3909195423048021,'стекло',true,true,false,Китай,'?'
false,-0.02852591577591149,false,0.6294661369765189,-0.14440655036496844,-1.4169405610464088,TwoYears,false,'0.8',false,false,false,true,true,true,1,?,-0.00138579277003169,'стекло',true,true,false,Китай,'?'
false,-0.031473878633503705,true,-0.8161379907721233,0.2073703413964291,0.47253351610494887,OneYear,false,'0.7',false,false,false,false,true,true,1,2,-0.26292268281992076,'пластик_стекло',true,true,false,Китай,'?'
false,-0.02852591577591149,true,0.6294661369765189,-0.9652192978082293,0.30076314545482546,OneYear,false,'0.6',false,false,false,false,true,true,1,1,0.129382652254913,'пластик_стекло',true,true,false,Россия,'?'
false,-0.03206347120502215,true,0.6294661369765189,-1.199737225649161,0.12899277480470206,OneYear,false,'0.8',false,false,false,false,true,true,1,1,-0.00138579277003169,'сталь',true,true,false,Китай,'?'
false,-0.02852591577591149,true,0.42295126158385576,-0.7307013699672976,-0.3863183371456682,TwoYears,false,'0.6',false,false,false,false,true,true,1,1,0.3909195423048021,'стекло',true,true,false,Китай,'?'
false,-0.0381067950630862,false,0.21643638619119257,-0.7307013699672976,-0.9016294490960385,OneYear,false,'1',false,false,false,false,false,true,1,?,-0.00138579277003169,'пластик',true,true,false,Китай,'?'
false,0.04104600766326487,false,1.3109652257723077,5.484023717817392,1.1596149987054425,OneYear,false,'0.7',true,false,false,false,true,true,1,1,-0.00138579277003169,'пластик_сталь_стекло',true,true,false,Китай,'поддержание_температуры_заваривание_чая'
false,-0.02852591577591149,false,0.21643638619119257,-0.027147586444502582,-0.21454796649554478,TwoYears,false,'1.2',false,false,false,false,true,true,1,1,-0.00138579277003169,'пластик',true,true,false,Китай,'?'
false,-0.03442184149109593,false,-0.5270171652223952,0.5825990259419201,0.6443038867550723,OneYear,false,'0.6',false,false,false,true,true,true,1,1,-0.00138579277003169,'сталь',true,true,false,Китай,'?'
false,-0.02852591577591149,false,0.009921510798529376,-0.2616655142854343,1.8466964813059363,OneYear,false,'0.75',false,false,false,false,true,true,1,1,0.129382652254913,'стекло',true,false,false,Китай,'?'
false,-0.03736980434868815,true,?,?,?,TwoYears,false,'0.67',false,false,false,false,true,true,1,1,-0.00138579277003169,'пластик',true,false,false,Китай,'?'
false,-0.03736980434868815,true,-0.6096231153794601,-0.9652192978082293,-0.21454796649554478,OneYear,false,'0.7',false,false,false,false,true,true,1,1,0.3909195423048021,'пластик',true,true,false,Китай,'?'
false,-0.03589582291989204,true,0.42295126158385576,-0.7307013699672976,-0.21454796649554478,OneYear,false,'1.5',false,false,false,false,false,true,1,1,0.3909195423048021,'сталь',true,true,false,Китай,'?'
false,-0.03736980434868815,false,-0.2998508022904654,-0.6134424060468319,-0.5580887077957917,OneYear,false,'0.7',false,false,false,false,true,false,1,?,-0.00138579277003169,'пластик',true,true,false,Китай,'?'
false,-0.03736980434868815,false,0.6294661369765189,-1.316996189569627,0.12899277480470206,OneYear,false,'0.7',false,false,false,false,true,true,1,1,-0.00138579277003169,'пластик',true,true,false,Россия,'?'
false,-0.042086544920835696,true,0.6501176245157856,-0.9652192978082293,0.40382536784489975,OneYear,false,'0.75',false,false,false,false,false,true,1,1,0.129382652254913,'сталь',true,true,false,Китай,'?'
false,-0.031473878633503705,true,0.21643638619119257,-0.7307013699672976,-0.729859078445915,OneYear,false,'0.7',false,false,false,true,true,true,1,1,-0.00138579277003169,'сталь',true,true,false,Китай,'?'
false,-0.03736980434868815,true,?,?,?,OneYear,false,'0.6',false,false,false,false,false,true,1,1,0.129382652254913,'сталь',true,true,false,Китай,'?'
false,-0.02557795291831927,false,0.42295126158385576,-0.49618344212636595,-0.21454796649554478,OneYear,false,'0.75',false,false,false,false,true,true,1,1,-0.00138579277003169,'стекло',true,false,false,Китай,'?'
false,-0.036780211777169704,false,-0.7335320406150581,-0.027147586444502582,0.6443038867550723,OneYear,false,'0.6',false,false,false,false,false,true,1,1,-0.00138579277003169,'пластик',true,true,false,Китай,'?'
false,-0.04385532263539102,false,-0.5063656776831286,0.4418882692373608,0.30076314545482546,OneYear,false,'0.75',false,false,false,false,true,true,1,?,0.129382652254913,'сталь',false,false,false,Китай,'?'
false,-0.016734064345542612,false,-0.403108239986797,0.6764061970782925,0.47253351610494887,OneYear,false,'1',false,false,true,false,true,true,1,2,-0.26292268281992076,'пластик_металл',true,true,false,Китай,'?'
false,-0.03736980434868815,true,-0.2998508022904654,-0.6134424060468319,-0.5580887077957917,OneYear,false,'0.7',false,false,false,false,true,true,1,1,-0.00138579277003169,'пластик',true,true,false,Китай,'?'
false,0.0401616188059872,false,1.6620405139398349,5.484023717817392,0.5755957384950232,OneYear,false,'0.7',true,false,false,false,true,true,1,1,-0.00138579277003169,'пластик_сталь_стекло',true,true,false,Китай,'поддержание_температуры_заваривание_чая'
false,-0.042086544920835696,false,-0.7335320406150581,0.488791854805547,-0.11148574410547049,OneYear,false,'0.6',false,false,false,false,true,true,1,1,-0.00138579277003169,'пластик',true,true,false,Китай,'?'
false,-0.007890175772765963,true,-1.0226528661647865,0.9109241249192241,0.6443038867550723,TwoYears,false,'0.8',false,false,false,false,true,true,1,2,-0.1321542377949761,'сталь',true,true,false,Китай,'поддержание_температуры'
false,-0.024988360346800825,false,-0.2998508022904654,1.0281830888396901,1.331385369355566,OneYear,false,'0.8',false,false,false,false,false,true,1,1,1.6986039925542478,'пластик_стекло',true,true,false,Китай,'?'
false,-0.04149695234931725,true,-0.2378963396726663,-0.4258280637740863,-0.3176101888856191,OneYear,false,'0.59',false,false,false,false,false,true,1,1,0.129382652254913,'пластик_сталь',true,true,false,Китай,'?'
false,-0.02852591577591149,false,-0.5476686527616611,0.32462930531689493,0.40382536784489975,OneYear,false,'0.7',false,false,false,false,true,true,1,2,-0.00138579277003169,'пластик_сталь',true,true,false,Китай,'?'
false,-0.019682027203134833,true,1.2490107631545084,3.4906213311694727,-1.2451701903962853,OneYear,false,'0.75',true,false,false,true,true,true,7,1,-0.00138579277003169,'сталь_стекло',true,true,false,Китай,'поддержание_температуры_заваривание_чая'
false,-0.03442184149109593,false,-0.7128805530757918,0.32462930531689493,-0.45502648540571733,OneYear,false,'0.75',false,false,false,false,true,true,1,1,-0.00138579277003169,'сталь',true,false,false,Китай,'?'
false,-0.02852591577591149,true,0.21643638619119257,-0.027147586444502582,0.8160742574051957,TwoYears,false,'0.72',false,false,false,false,true,true,1,1,-0.00138579277003169,'сталь',true,false,false,Китай,'?'
false,-0.03589582291989204,false,-0.6096231153794601,1.8020922507147648,0.3694712937148746,OneYear,false,?,false,false,false,false,false,false,?,?,?,'пластик_сталь',false,false,false,Китай,'?'
false,-0.03442184149109593,true,-0.19659336459413382,-0.49618344212636595,1.5031557400056894,OneYear,false,'1.5',false,false,false,false,true,true,1,1,0.129382652254913,'пластик_стекло',true,true,false,Китай,'?'
false,-0.03442184149109593,false,0.42295126158385576,0.2073703413964291,0.6443038867550723,OneYear,false,'1',false,false,false,true,true,true,1,1,0.129382652254913,'металл',true,true,false,Китай,'?'
false,-0.052109618636649244,false,0.42295126158385576,0.4418882692373608,-2.6193331555972725,OneYear,false,'0.7',false,false,true,false,true,true,1,1,-0.00138579277003169,'пластик',true,true,false,Китай,'?'
false,-0.02823111949015227,true,0.7327235746728505,-0.9652192978082293,0.541241664364998,OneYear,false,'0.75',false,false,true,true,true,true,4,?,-0.00138579277003169,'сталь',true,true,false,Китай,'поддержание_температуры'
false,0.009797601372787351,true,1.0011929126833128,0.2073703413964291,1.1252609245754175,TwoYears,false,?,true,false,false,true,true,true,5,1,-0.1321542377949761,'сталь',true,true,true,Китай,'поддержание_температуры_заваривание_чая'
false,-0.040317767206280365,false,0.009921510798529376,-1.6687730813310244,-0.5580887077957917,TwoYears,false,'0.8',false,true,false,false,false,true,?,1,-0.00138579277003169,'пластик',true,true,false,Китай,'?'
false,-0.03442184149109593,false,-0.6096231153794601,0.2073703413964291,-1.5887109316965322,OneYear,false,'0.75',false,false,false,false,true,true,1,2,0.3909195423048021,'пластик_сталь',true,false,false,Китай,'?'
false,-0.03088428606198526,false,-0.19659336459413382,0.6764061970782925,-0.9016294490960385,TwoYears,false,'0.7',false,false,false,false,true,true,1,1,-0.00138579277003169,'пластик',true,true,false,Китай,'?'
false,-0.03442184149109593,false,0.21643638619119257,-0.027147586444502582,1.8466964813059363,OneYear,false,'1',false,false,false,false,true,true,1,1,-0.00138579277003169,'стекло',true,true,false,Китай,'?'
false,-0.03707500806292892,false,-0.7128805530757918,0.6295026115101063,0.5755957384950232,OneYear,false,'0.6',false,false,false,false,true,true,1,1,-0.00138579277003169,'сталь',true,true,false,Китай,'?'
false,-0.03442184149109593,true,0.11317894849486097,-1.4342551534900927,0.6443038867550723,TwoYears,false,'0.8',false,false,false,false,true,true,1,1,-0.00138579277003169,'пластик',true,true,false,Китай,'?'
false,-0.03736980434868815,false,0.38164828650532323,0.488791854805547,-2.1040220436469026,TwoYears,false,'0.9',false,true,false,false,false,true,1,1,0.129382652254913,'пластик',true,true,false,Китай,'?'
false,-0.017028860631301837,false,-0.19659336459413382,0.6764061970782925,-0.9016294490960385,TwoYears,false,'0.7',false,false,false,true,true,true,1,1,-0.26292268281992076,'стекло',true,true,false,Китай,'?'
false,-0.03442184149109593,true,0.009921510798529376,-0.9652192978082293,-1.5887109316965322,TwoYears,false,'0.8',false,false,false,true,true,true,1,1,-0.00138579277003169,'сталь',true,true,false,Китай,'?'
false,-0.031473878633503705,false,0.009921510798529376,-0.8479603338877635,-0.9016294490960385,OneYear,false,'0.75',false,false,false,false,true,true,1,1,-0.00138579277003169,'сталь',true,false,false,Китай,'?'
false,-0.02557795291831927,true,-0.6509260904579927,0.32462930531689493,0.8847824056652449,OneYear,false,'0.7',false,false,false,true,true,true,6,2,-0.00138579277003169,'пластик_металл',true,true,false,Китай,'поддержание_температуры'
false,-0.03442184149109593,false,0.9392384500655137,2.3180316919648143,-2.2070842660369765,OneYear,false,?,false,false,false,false,false,false,?,?,?,'сталь',false,false,false,Китай,'?'
false,-0.03442184149109593,false,0.009921510798529376,-0.027147586444502582,-1.5887109316965322,OneYear,false,'0.75',false,false,false,true,true,true,1,2,-0.26292268281992076,'пластик_сталь',true,false,false,Китай,'?'
false,-0.031473878633503705,false,-1.1259103038611182,0.2073703413964291,1.1596149987054425,OneYear,false,'0.8',false,false,false,false,true,true,1,1,-0.00138579277003169,'сталь',true,true,false,Китай,'?'
false,-0.03736980434868815,true,-0.6096231153794601,0.9109241249192241,0.12899277480470206,HalfYear,false,'0.7',false,false,false,false,true,true,1,1,0.129382652254913,'металл',true,true,false,Китай,'?'
false,-0.03736980434868815,false,0.009921510798529376,-0.027147586444502582,-1.5887109316965322,OneYear,false,'0.75',false,false,false,true,true,true,1,2,-0.26292268281992076,'пластик_сталь',true,false,false,Китай,'?'
false,-0.040317767206280365,false,0.21643638619119257,-0.9652192978082293,-0.9016294490960385,TwoYears,false,'0.8',false,false,false,true,true,true,1,?,-0.00138579277003169,'пластик',true,true,false,Китай,'?'
false,-0.03442184149109593,false,-0.6096231153794601,0.2073703413964291,-1.5887109316965322,OneYear,false,'0.75',false,false,false,false,true,true,1,2,0.3909195423048021,'пластик_сталь',true,false,false,Китай,'?'
false,-0.02410397148952316,true,0.42295126158385576,0.2073703413964291,-0.9016294490960385,TwoYears,false,'0.65',false,false,false,true,true,true,1,1,0.129382652254913,'пластик_сталь',true,true,false,Китай,'?'
false,-0.03736980434868815,true,-0.6096231153794601,-0.9652192978082293,-0.21454796649554478,OneYear,false,'0.7',false,false,false,false,true,true,1,1,0.3909195423048021,'пластик',true,true,false,Китай,'?'
false,-0.02557795291831927,false,-0.6096231153794601,0.2073703413964291,0.12899277480470206,OneYear,false,'0.7',false,false,true,true,true,true,3,1,-0.00138579277003169,'стекло',true,true,false,Китай,'шумоподавление'
false,-0.033832248919577486,false,-0.5063656776831286,0.5591472331578267,0.12899277480470206,OneYear,true,'0.8',false,false,false,false,true,true,?,1,0.129382652254913,'пластик_сталь_стекло',true,true,false,Китай,'?'
false,-0.03972817463476192,false,0.42295126158385576,-1.199737225649161,-0.3863183371456682,OneYear,false,'0.6',false,false,false,false,true,true,1,1,0.129382652254913,'пластик_металл',true,false,false,Китай,'?'
false,-0.033832248919577486,false,-1.2291677415574498,0.2073703413964291,-0.729859078445915,OneYear,false,'0.7',false,false,false,false,true,true,1,1,-0.26292268281992076,'пластик',true,true,false,Китай,'?'
false,-0.03442184149109593,false,0.009921510798529376,-0.9652192978082293,-1.5887109316965322,TwoYears,false,'0.8',false,false,false,true,true,true,1,?,-0.00138579277003169,'сталь',true,true,false,Китай,'?'
false,-0.03442184149109593,false,0.009921510798529376,-0.027147586444502582,-1.5887109316965322,OneYear,false,'0.75',false,false,false,true,true,true,1,2,-0.26292268281992076,'пластик_сталь',true,false,false,Китай,'?'
false,-0.02852591577591149,true,?,?,?,TwoYears,false,'0.7',false,false,false,false,true,true,1,1,-0.00138579277003169,'стекло',true,true,false,Китай,'?'
false,-0.03736980434868815,false,0.009921510798529376,-0.027147586444502582,-1.5887109316965322,OneYear,false,'0.75',false,false,false,false,true,true,1,2,-0.26292268281992076,'пластик_сталь',true,false,false,Китай,'?'
false,-0.02852591577591149,true,0.31969382388752415,-0.6134424060468319,0.12899277480470206,TwoYears,false,'0.8',false,false,false,false,false,true,1,1,-0.26292268281992076,'пластик',false,false,false,Китай,'?'
false,-0.03442184149109593,true,0.21643638619119257,-0.9652192978082293,-0.5580887077957917,TwoYears,false,'1',false,false,false,true,true,true,1,1,-0.00138579277003169,'сталь',true,true,false,Китай,'?'
false,-0.029115508347429934,true,-0.7541835281543242,0.488791854805547,0.30076314545482546,OneYear,false,'0.75',false,false,true,true,true,true,3,?,-0.00138579277003169,'пластик_стекло',true,true,false,Китай,'?'
false,-0.03206347120502215,false,-0.19659336459413382,0.6764061970782925,-0.9016294490960385,TwoYears,false,'0.7',false,false,false,false,true,true,1,1,-0.00138579277003169,'пластик',true,true,false,Китай,'?'
false,-0.03619061920565126,false,-0.9606984035469874,0.2308221341805226,0.2664090713248003,OneYear,false,'1.4',false,false,false,false,false,true,1,2,-0.26292268281992076,'сталь',false,false,false,Китай,'?'
false,-0.03442184149109593,true,0.21643638619119257,-0.7307013699672976,-0.5580887077957917,TwoYears,false,'0.8',false,false,false,false,true,true,1,1,0.3909195423048021,'сталь',true,true,false,Китай,'?'
false,-0.03972817463476192,false,0.42295126158385576,-1.199737225649161,-0.3863183371456682,OneYear,false,'0.6',false,false,false,false,true,true,1,1,0.129382652254913,'пластик_металл',true,false,false,Китай,'?'
false,-0.040317767206280365,false,-0.2998508022904654,-0.2616655142854343,-0.042777595845421366,OneYear,false,'0.6',false,false,false,false,true,true,1,?,0.129382652254913,'металл',true,false,false,Китай,'?'
false,-0.03884378577748425,true,-0.9193954284684549,-0.027147586444502582,-0.9016294490960385,OneYear,false,'0.85',false,false,false,false,true,true,1,2,-0.00138579277003169,'стекло',true,false,false,Китай,'?'
false,-0.019682027203134833,true,0.7327235746728505,5.014987862135529,0.6443038867550723,OneYear,false,'0.7',true,false,false,false,true,true,1,1,0.3909195423048021,'пластик_стекло',true,true,false,Китай,'поддержание_температуры_заваривание_чая'
false,-0.031473878633503705,false,-0.6096231153794601,1.403411773385181,-0.9703375973560876,OneYear,false,'0.75',false,false,false,false,true,true,1,1,-0.26292268281992076,'стекло',true,true,false,Китай,'?'
false,-0.03589582291989204,true,-0.6715775779972593,0.2073703413964291,-0.11148574410547049,OneAndHalfYear,false,'0.85',false,false,false,false,true,true,1,1,0.129382652254913,'сталь_стекло',true,true,false,Китай,'поддержание_температуры'
false,-0.03206347120502215,false,-0.19659336459413382,0.6764061970782925,-0.9016294490960385,TwoYears,false,'0.7',false,false,false,false,true,true,1,1,-0.00138579277003169,'пластик',true,true,false,Китай,'?'
false,-0.029115508347429934,false,0.8359810123691821,0.30117751253280145,0.47253351610494887,OneYear,false,'0.75',false,false,false,false,false,true,1,1,-0.00138579277003169,'пластик_сталь_стекло',true,true,false,Китай,'?'
false,-0.03736980434868815,true,-0.2998508022904654,-0.6134424060468319,-0.5580887077957917,OneYear,false,'0.7',false,false,false,false,true,true,1,1,-0.00138579277003169,'пластик',true,true,false,Китай,'?'
false,-0.031473878633503705,true,-1.0226528661647865,0.2073703413964291,1.1596149987054425,OneYear,false,'0.8',false,false,true,false,true,true,1,1,-0.00138579277003169,'сталь',true,true,false,Китай,'?'
false,-0.03736980434868815,false,0.5262086992801873,-1.316996189569627,-0.35196426301564304,OneYear,false,'0.75',false,false,false,false,true,true,1,1,0.129382652254913,'пластик_сталь_стекло',true,true,false,Китай,'?'
false,-0.03442184149109593,false,0.31969382388752415,-0.1913101359331546,1.1596149987054425,OneYear,false,'0.85',false,false,false,false,true,true,1,1,-0.26292268281992076,'пластик',true,true,false,Китай,'?'
false,-0.03736980434868815,false,0.21643638619119257,-1.059026468944602,-0.3863183371456682,OneYear,false,'0.75',false,false,true,true,true,true,1,1,-0.00138579277003169,'пластик',true,true,false,Китай,'?'
false,-0.03442184149109593,true,-0.6096231153794601,0.4418882692373608,0.47253351610494887,OneYear,false,'0.75',false,false,false,true,true,true,6,2,-0.26292268281992076,'пластик',true,true,false,Китай,'поддержание_температуры'
false,-0.031473878633503705,true,-0.7128805530757918,0.019755999123683587,1.8466964813059363,OneYear,false,'0.7',false,false,false,false,false,true,1,2,-0.26292268281992076,'пластик_сталь',true,true,false,Китай,'поддержание_температуры'
false,-0.02852591577591149,false,-0.5476686527616611,0.32462930531689493,0.40382536784489975,OneYear,false,'0.7',false,false,false,false,true,true,1,2,-0.00138579277003169,'пластик_сталь',true,true,false,Китай,'?'
false,-0.04238134120659492,true,-0.9193954284684549,1.8958994218511371,-0.6955050043158899,OneYear,false,'0.7',false,false,false,false,false,true,1,1,-0.9167649079446436,'пластик_сталь',true,true,false,Китай,'?'
false,-0.02852591577591149,false,-0.19659336459413382,0.4418882692373608,-0.9016294490960385,TwoYears,false,'0.7',false,false,false,true,true,true,4,1,-0.00138579277003169,'сталь',true,true,false,Китай,'поддержание_температуры'
false,-0.038254193205965806,true,0.31969382388752415,-0.7307013699672976,-0.21454796649554478,OneYear,false,'1',false,false,false,false,true,true,1,1,0.129382652254913,'сталь',true,true,false,Китай,'?'
false,-0.02410397148952316,false,0.42295126158385576,-0.2616655142854343,-0.042777595845421366,OneYear,false,'0.75',false,false,false,false,true,true,1,1,-0.00138579277003169,'стекло',true,false,false,Китай,'?'
false,-0.022924786346486276,true,0.7533750622121171,-1.1059300545127884,-0.07713166997544654,OneYear,false,'0.8',false,false,true,true,false,true,6,2,-0.26292268281992076,'сталь',true,true,false,Китай,'поддержание_температуры'
false,-0.03088428606198526,false,-0.19659336459413382,0.6764061970782925,-0.9016294490960385,TwoYears,false,'0.7',false,false,false,false,true,true,1,1,-0.00138579277003169,'пластик',true,true,false,Китай,'?'
false,-0.03442184149109593,false,0.21643638619119257,-0.9652192978082293,-0.9016294490960385,TwoYears,false,'0.8',false,false,false,true,true,true,1,?,-0.00138579277003169,'пластик',true,true,false,Китай,'?'
false,-0.040317767206280365,true,-0.2998508022904654,-0.6134424060468319,-1.2451701903962853,TwoYears,false,'1',false,false,false,true,true,true,1,1,-0.00138579277003169,'сталь',true,true,false,Китай,'?'
false,-0.03442184149109593,false,-0.7128805530757918,0.4418882692373608,-0.042777595845421366,TwoYears,false,'0.8',false,false,true,false,true,true,1,1,-0.00138579277003169,'сталь',true,true,false,Китай,'?'
false,-0.03589582291989204,false,0.21643638619119257,-0.027147586444502582,-0.21454796649554478,OneYear,false,'0.7',false,false,false,false,false,true,1,1,0.129382652254913,'пластик_сталь',true,true,false,Китай,'?'
false,-0.03459871926255146,true,0.5262086992801873,-1.0824782617286952,0.47253351610494887,TwoYears,false,'0.77',false,false,false,false,false,true,1,2,-0.00138579277003169,'пластик',true,false,false,Китай,'?'
false,-0.033242656348059035,false,?,?,?,OneYear,false,?,false,false,false,false,true,true,1,?,-0.00138579277003169,'пластик_стекло',true,true,false,Китай,'?'
false,-0.02852591577591149,false,0.5262086992801873,-1.0355746761605091,0.953490553925294,OneYear,false,'0.7',false,false,false,false,false,true,1,?,-0.26292268281992076,'пластик_металл',true,true,false,Китай,'?'
false,-0.029115508347429934,false,0.8359810123691821,0.30117751253280145,0.47253351610494887,OneYear,false,'0.75',false,false,false,false,false,true,1,?,-0.00138579277003169,'стекло_металл',true,true,false,Китай,'?'
false,-0.03736980434868815,true,-0.6096231153794601,-0.9652192978082293,-0.21454796649554478,OneYear,false,'0.7',false,false,false,false,true,true,1,1,0.3909195423048021,'пластик',true,true,false,Китай,'?'
false,-0.037782519148751054,false,0.5262086992801873,-1.199737225649161,-0.21454796649554478,OneYear,false,'0.7',false,false,false,true,true,true,5,1,-0.00138579277003169,'пластик_сталь_стекло',true,true,false,Китай,'?'
false,-0.02675713806135616,false,0.21643638619119257,-0.49618344212636595,-0.5580887077957917,OneYear,false,'0.65',false,false,false,false,true,true,1,1,-0.00138579277003169,'пластик_сталь_стекло',true,false,false,Китай,'?'
false,-0.03088428606198526,false,-0.19659336459413382,0.6764061970782925,-0.9016294490960385,TwoYears,false,'0.7',false,false,false,false,true,true,1,1,-0.00138579277003169,'пластик',true,true,false,Китай,'?'
false,-0.040317767206280365,false,0.009921510798529376,-1.6687730813310244,-0.5580887077957917,TwoYears,false,'0.8',false,false,false,false,false,true,1,1,-0.00138579277003169,'пластик',true,true,false,Китай,'?'
false,-0.02852591577591149,false,0.009921510798529376,-0.2616655142854343,1.8466964813059363,OneYear,false,'0.75',false,false,false,false,true,true,1,1,0.129382652254913,'стекло',true,false,false,Китай,'?'
false,-0.022629990060727054,false,?,?,?,TwoYears,false,'0.75',false,false,false,false,true,true,1,?,-0.00138579277003169,'металл',true,true,false,Китай,'?'
false,-0.03736980434868815,true,-0.7128805530757918,0.09011137747596326,-0.042777595845421366,OneYear,false,'0.7',false,false,false,false,true,true,1,1,0.129382652254913,'пластик_стекло',true,true,false,Китай,'?'
false,-0.030294693490466824,false,0.6294661369765189,-1.0824782617286952,0.12899277480470206,OneYear,false,'0.7',false,false,false,false,false,false,1,?,-0.00138579277003169,'пластик_стекло',true,true,false,Китай,'?'
false,-0.026167545489837716,false,1.6620405139398349,-0.2616655142854343,-1.5887109316965322,OneYear,false,'1',false,false,false,false,true,true,1,1,0.129382652254913,'пластик_стекло',true,true,false,Китай,'?'
false,-0.029262906490309545,false,0.009921510798529376,-0.2616655142854343,0.06028462654465293,OneYear,false,'0.57',false,false,false,false,false,true,1,1,0.129382652254913,'сталь_стекло_алюминий',false,true,false,Китай,'?'
false,-0.03736980434868815,true,-0.6096231153794601,0.9109241249192241,0.12899277480470206,HalfYear,false,'0.7',false,false,false,false,true,true,1,1,0.129382652254913,'металл',true,true,false,Китай,'?'
false,-0.023514378918004716,false,0.9805414251440462,-0.9652192978082293,1.0221987021853443,OneYear,false,'0.7',false,false,false,false,true,false,1,2,-0.26292268281992076,'пластик_сталь',true,true,false,Китай,'?'
false,-0.02852591577591149,true,0.42295126158385576,-0.7307013699672976,-0.3863183371456682,OneYear,false,'0.8',false,false,false,false,true,true,1,1,0.3909195423048021,'стекло',true,true,false,Китай,'?'
false,-0.027641526918633825,true,0.8359810123691821,-0.7307013699672976,0.12899277480470206,OneYear,false,'0.7',false,false,false,false,true,true,1,1,0.129382652254913,'пластик',true,true,false,Китай,'?'
false,-0.03442184149109593,false,0.42295126158385576,0.4418882692373608,-0.9016294490960385,OneYear,false,'0.7',false,false,true,false,true,true,1,2,-0.00138579277003169,'пластик_сталь',true,true,false,Китай,'поддержание_температуры'
false,-0.03442184149109593,true,-0.7128805530757918,0.32462930531689493,0.19770092306475118,OneYear,false,'0.6',false,false,true,false,true,true,1,1,-0.00138579277003169,'пластик_сталь_стекло',true,true,false,Китай,'?'
false,-0.03442184149109593,false,-1.0226528661647865,0.2073703413964291,-0.3863183371456682,OneYear,false,'0.6',false,false,true,false,true,true,1,1,0.129382652254913,'металл',true,true,false,Китай,'?'
false,-0.02970510091894838,true,0.42295126158385576,-1.0824782617286952,1.8466964813059363,OneYear,false,'0.8',false,false,true,true,true,true,7,1,-0.6552280178947545,'сталь',true,true,false,Китай,'поддержание_температуры'
false,-0.0019942500575815206,false,1.35226820085084,0.32462930531689493,-0.042777595845421366,OneYear,false,'1',false,false,false,false,false,true,1,?,-0.26292268281992076,'керамика',true,true,false,Китай,'?'
false,-0.016734064345542612,false,0.009921510798529376,-0.2616655142854343,1.1596149987054425,OneYear,false,'1',false,false,false,true,true,true,1,2,0.129382652254913,'металл',true,true,false,Китай,'шумоподавление'
false,-0.03736980434868815,true,-0.7128805530757918,1.3799599806010876,-0.3863183371456682,OneYear,false,'0.75',false,true,false,false,true,true,1,1,-0.00138579277003169,'пластик_сталь',true,true,false,Китай,'?'
false,-0.03884378577748425,true,?,?,?,OneYear,false,?,false,false,false,false,false,true,1,1,0.129382652254913,'сталь',true,false,false,Китай,'?'
false,-0.013786101487950399,true,0.5262086992801873,0.32462930531689493,1.8466964813059363,TwoYears,false,'0.8',false,false,false,false,true,true,1,2,-0.00138579277003169,'сталь_стекло',true,true,false,Китай,'?'
false,-0.03442184149109593,false,-0.6096231153794601,0.4418882692373608,0.30076314545482546,OneYear,false,'0.7',false,false,false,false,false,true,1,1,0.3909195423048021,'пластик_стекло_металл',true,true,false,Китай,'?'
false,-0.03442184149109593,false,0.42295126158385576,0.4418882692373608,-0.9016294490960385,OneYear,false,'0.7',false,false,true,false,true,true,1,2,-0.00138579277003169,'пластик_сталь',true,true,false,Китай,'поддержание_температуры'
false,-0.040317767206280365,false,0.42295126158385576,0.488791854805547,-2.1040220436469026,TwoYears,false,'0.9',false,true,false,false,false,true,1,1,-0.00138579277003169,'пластик',true,true,false,Китай,'?'
false,-0.04326573006387258,true,-0.5063656776831286,-0.14440655036496844,0.47253351610494887,OneYear,false,'0.75',false,false,false,false,true,true,1,1,-0.26292268281992076,'пластик_сталь',true,true,false,Китай,'?'
false,-0.036485415491410475,false,0.42295126158385576,-0.7307013699672976,-0.21454796649554478,OneYear,false,'1.5',false,false,false,false,false,true,?,?,0.3909195423048021,'сталь',false,false,false,Китай,'?'
false,-0.02852591577591149,true,0.6294661369765189,0.4418882692373608,-2.6193331555972725,TwoYears,false,'0.75',false,false,false,false,true,true,1,1,-0.00138579277003169,'стекло',true,true,false,Китай,'?'
false,-0.041791748635076474,true,-0.8161379907721233,0.6295026115101063,-0.21454796649554478,OneYear,false,'0.6',false,false,false,false,false,true,1,1,0.129382652254913,'сталь',true,true,false,Китай,'?'
false,-0.040317767206280365,false,-0.6509260904579927,0.6764061970782925,-0.042777595845421366,OneYear,false,'0.65',false,false,false,false,true,true,1,1,-0.00138579277003169,'пластик',false,false,false,Китай,'?'
false,-0.040317767206280365,false,-0.7128805530757918,-0.6134424060468319,-0.9016294490960385,TwoYears,false,'0.9',false,false,false,false,true,true,1,1,-0.9167649079446436,'пластик_стекло',true,true,false,Китай,'поддержание_температуры'
false,-0.028820712061670712,false,0.42295126158385576,-1.0824782617286952,0.12899277480470206,OneYear,false,'0.7',false,false,false,false,false,false,1,?,-0.26292268281992076,'пластик_стекло',true,true,false,Китай,'?'
false,-0.0381067950630862,true,-0.8161379907721233,0.2073703413964291,0.12899277480470206,OneYear,false,'0.75',false,false,false,false,true,true,1,?,-0.00138579277003169,'пластик',true,true,false,Китай,'?'
false,-0.02852591577591149,false,-0.19659336459413382,0.4418882692373608,-0.9016294490960385,TwoYears,false,'0.7',false,false,false,true,true,true,4,1,-0.00138579277003169,'сталь',true,true,false,Китай,'поддержание_температуры'
false,-0.038254193205965806,true,0.29904233634825755,-0.8010567483195773,-0.21454796649554478,HalfYear,false,'0.6',false,false,false,false,false,true,1,2,0.129382652254913,'сталь',true,true,false,Китай,'?'
false,-0.029999897204707603,false,0.9392384500655137,0.7936651609987584,0.6443038867550723,TwoYears,false,'0.6',false,false,false,false,true,true,1,2,-0.00138579277003169,'металл',true,true,false,Китай,'?'
false,-0.02852591577591149,false,0.42295126158385576,-0.9652192978082293,0.47253351610494887,OneYear,false,'0.7',false,false,false,false,false,false,1,?,-0.00138579277003169,'пластик_стекло',true,true,false,Китай,'?'
false,-0.01260691634491351,false,-0.6096231153794601,0.9109241249192241,-0.9016294490960385,OneYear,false,'0.6',false,false,false,false,true,true,1,1,-0.9167649079446436,'керамика',true,true,false,Китай,'?'
false,-0.022629990060727054,true,-0.2998508022904654,0.5356954403737332,0.4381794419749237,OneYear,false,'0.8',false,false,false,false,true,false,1,1,-0.00138579277003169,'сталь',true,true,false,Китай,'?'
false,-0.02557795291831927,false,0.9392384500655137,-0.8479603338877635,-0.9016294490960385,OneYear,false,'1',false,false,false,true,false,true,1,1,-0.00138579277003169,'пластик',true,true,false,Китай,'поддержание_температуры'
false,-0.02557795291831927,true,1.2490107631545084,0.4418882692373608,-1.932251672996779,OneYear,false,'0.8',false,false,false,false,true,true,1,1,-0.00138579277003169,'сталь',true,true,false,Китай,'?'
false,-0.02852591577591149,true,?,?,?,OneYear,false,?,false,false,false,false,true,true,1,1,-0.00138579277003169,'пластик_стекло',true,true,false,Китай,'?'
false,-0.02557795291831927,true,0.5468601868194539,-1.199737225649161,1.331385369355566,OneYear,false,'0.8',false,true,false,false,true,true,1,1,-0.00138579277003169,'сталь',true,true,false,Китай,'?'
false,-0.031473878633503705,true,-0.6302746029187264,0.6764061970782925,0.541241664364998,OneYear,false,'0.7',false,false,false,false,false,true,1,?,-0.26292268281992076,'пластик_металл',true,true,false,Китай,'поддержание_температуры'
false,-0.022629990060727054,true,?,-0.027147586444502582,-0.3863183371456682,TwoYears,false,'1',false,false,false,false,true,true,1,1,-0.9167649079446436,'сталь_стекло',true,true,false,Китай,'?'
false,-0.04149695234931725,false,-0.7541835281543242,0.5825990259419201,-0.21454796649554478,OneYear,false,'0.8',false,false,true,false,true,true,1,1,-0.00138579277003169,'пластик',true,true,false,Китай,'?'
false,-0.017028860631301837,false,-0.19659336459413382,0.6764061970782925,-0.9016294490960385,TwoYears,false,'0.7',false,false,false,true,true,true,1,1,-0.26292268281992076,'стекло',true,true,false,Китай,'?'
false,-0.032947860062299814,false,-0.8161379907721233,0.7233097826464787,1.3657394434855912,TwoYears,false,'0.8',false,false,true,false,true,true,1,1,-0.00138579277003169,'пластик',true,true,false,Китай,'?'
false,-0.022629990060727054,true,-0.7128805530757918,0.32462930531689493,-0.042777595845421366,OneYear,false,?,false,false,false,false,true,true,1,1,-0.00138579277003169,'сталь',true,true,false,Китай,'?'
false,-0.02675713806135616,false,-0.7335320406150581,1.3799599806010876,-0.5580887077957917,OneYear,false,'0.75',false,false,false,true,true,true,1,?,-0.00138579277003169,'сталь',true,true,false,Китай,'шумоподавление'
false,-0.030589489776226046,false,-0.7954865032328571,0.643573687180562,0.30076314545482546,TwoYears,false,'0.7',false,false,true,true,true,true,5,1,-0.00138579277003169,'пластик_стекло_металл',false,true,false,Китай,'?'
false,-0.03442184149109593,false,0.29904233634825755,-0.23821372150134076,1.0565527763153684,OneYear,false,'0.85',false,false,false,false,true,true,1,2,-0.26292268281992076,'пластик',true,true,false,Китай,'?'
false,-0.02852591577591149,false,-0.5476686527616611,0.32462930531689493,0.40382536784489975,OneYear,false,'0.7',false,false,false,false,true,true,1,2,-0.00138579277003169,'пластик_сталь',true,true,false,Китай,'?'
false,-0.031473878633503705,false,-0.7128805530757918,0.2073703413964291,-0.5580887077957917,OneYear,false,'0.8',false,false,false,false,true,true,1,1,0.129382652254913,'пластик_сталь_стекло',true,false,false,Китай,'?'
false,-0.03736980434868815,false,0.691420599594318,-0.9652192978082293,-0.3863183371456682,OneYear,false,'0.7',false,false,false,false,true,true,1,1,-0.00138579277003169,'металл',true,true,false,Китай,'?'
false,-0.027936323204393047,true,-0.403108239986797,0.13701496304414942,-0.2832561147555939,TwoYears,false,'0.75',true,false,true,false,false,true,7,?,-1.439838688044422,'сталь',true,true,false,Китай,'поддержание_температуры_заваривание_чая'
false,-0.03442184149109593,false,0.5262086992801873,-0.6134424060468319,0.8160742574051957,TwoYears,false,'1',false,true,true,true,true,true,5,2,-0.00138579277003169,'пластик_сталь',true,true,false,Китай,'поддержание_температуры'
false,-0.029115508347429934,false,0.6707691120550514,-1.1293818472968813,0.30076314545482546,OneYear,false,'0.82',false,false,true,true,true,true,1,2,-0.00138579277003169,'пластик_стекло',true,true,false,Китай,'?'
false,-0.019682027203134833,false,0.6294661369765189,-1.0824782617286952,0.12899277480470206,OneYear,false,'0.7',false,false,false,true,false,true,5,2,-0.00138579277003169,'пластик_металл',true,true,false,Китай,'поддержание_температуры'
false,-0.03442184149109593,false,-0.7128805530757918,0.32462930531689493,-0.45502648540571733,OneYear,false,'0.75',false,false,false,false,true,true,1,2,-0.00138579277003169,'сталь',true,false,false,Китай,'?'
false,-0.031473878633503705,true,0.31969382388752415,-0.2147619287172481,-3.134644267547643,OneYear,false,'0.75',false,false,false,false,true,true,1,2,-1.439838688044422,'пластик',true,true,false,Китай,'?'
false,-0.031473878633503705,false,-0.8161379907721233,0.4418882692373608,-0.21454796649554478,OneYear,false,'0.8',false,false,false,false,true,true,1,1,-0.00138579277003169,'сталь',true,false,false,Китай,'?'
false,-0.03442184149109593,false,-0.19659336459413382,-0.027147586444502582,0.12899277480470206,OneYear,false,'0.6',false,false,true,false,true,true,1,1,0.129382652254913,'металл',true,true,false,Китай,'?'
false,-0.03713396732008077,false,0.21643638619119257,-1.059026468944602,-0.3863183371456682,OneYear,false,'0.75',false,true,false,true,true,true,1,1,-0.00138579277003169,'пластик',true,true,false,Китай,'?'
false,-0.026167545489837716,true,1.7652979516361664,0.06665958469186976,-2.722395377987347,ThreeYears,false,'0.75',false,false,false,true,true,true,5,1,-0.26292268281992076,'пластик',true,true,false,Китай,'шумоподавление_поддержание_температуры'
false,-0.026167545489837716,false,-0.6715775779972593,0.25427392696461526,1.0221987021853443,TwoYears,false,'0.7',false,false,true,true,false,true,7,2,-0.00138579277003169,'пластик',true,true,false,Китай,'поддержание_температуры'
false,-0.0019942500575815206,true,1.7033434890183674,0.9343759177033177,-1.142107968006211,ThreeYears,false,'1',false,true,true,true,true,true,6,2,-0.26292268281992076,'алюминий',true,true,false,Китай,'шумоподавление_поддержание_температуры'
false,-0.03736980434868815,false,-0.403108239986797,0.2073703413964291,-0.14583981823549566,OneYear,false,'0.75',false,false,false,false,false,false,1,1,-0.00138579277003169,'пластик',true,false,false,Китай,'?'
false,-0.03206347120502215,false,-0.6509260904579927,0.3480810981009885,0.19770092306475118,OneYear,false,'0.85',false,false,true,false,true,true,1,1,-0.00138579277003169,'стекло',true,true,false,Китай,'?'
false,-0.03442184149109593,false,-0.19659336459413382,-0.49618344212636595,-0.21454796649554478,TwoYears,false,'0.7',false,false,false,false,true,true,1,1,-0.00138579277003169,'стекло',true,false,false,Китай,'?'
false,-0.03736980434868815,true,-0.19659336459413382,-0.49618344212636595,-0.729859078445915,HalfYear,false,'0.8',false,false,false,false,false,true,1,1,-0.00138579277003169,'пластик_сталь',true,true,false,Китай,'?'
false,-0.03736980434868815,false,-0.403108239986797,0.2073703413964291,-0.14583981823549566,OneYear,false,'0.75',false,false,false,false,false,false,1,1,-0.00138579277003169,'пластик',true,false,false,Китай,'?'
false,-0.0349229951768866,false,-0.6715775779972593,0.30117751253280145,0.19770092306475118,ThreeYears,false,'0.7',false,false,false,true,true,true,1,1,-0.00138579277003169,'сталь',true,true,false,Китай,'?'
false,-0.03713396732008077,false,0.21643638619119257,-1.059026468944602,-0.3863183371456682,OneYear,false,'0.75',false,true,false,true,true,true,1,1,-0.00138579277003169,'пластик',true,true,false,Китай,'?'
false,-0.019682027203134833,false,-0.8161379907721233,0.4418882692373608,0.30076314545482546,OneYear,false,'0.7',false,false,true,true,false,true,4,2,-0.00138579277003169,'пластик_стекло',true,true,false,Китай,'поддержание_температуры'
false,-0.019682027203134833,true,0.21643638619119257,1.0281830888396901,0.30076314545482546,TwoYears,false,'0.75',false,false,false,false,true,true,1,1,-0.39369112784486543,'керамика',true,true,false,Китай,'шумоподавление'
false,-0.03713396732008077,false,0.21643638619119257,-1.059026468944602,-0.3863183371456682,OneYear,false,'0.75',false,true,false,true,true,true,1,1,-0.00138579277003169,'пластик',true,true,false,Китай,'?'
false,-0.03442184149109593,true,-0.7748350156935908,-0.027147586444502582,-1.2451701903962853,OneYear,false,'1',false,false,false,false,true,true,1,1,-1.1783017979945327,'пластик',true,true,false,Китай,'?'
false,-0.026167545489837716,false,0.6294661369765189,-1.199737225649161,-0.5580887077957917,OneYear,false,'0.75',false,false,true,true,true,true,5,1,-0.00138579277003169,'стекло_металл',true,true,false,Китай,'поддержание_температуры'
false,-0.031473878633503705,false,-0.6096231153794601,1.403411773385181,-0.9703375973560876,OneYear,false,'0.75',false,false,false,false,true,true,1,1,-0.26292268281992076,'стекло',true,true,false,Китай,'?'
false,-0.031473878633503705,true,1.4142226634686392,0.488791854805547,0.7473661091451466,OneYear,false,'0.8',false,false,false,false,true,false,1,1,-0.00138579277003169,'сталь',true,true,false,Китай,'?'
false,-0.03442184149109593,false,-0.403108239986797,-0.7307013699672976,-0.5580887077957917,OneYear,false,'0.57',false,false,false,false,false,true,1,1,-0.00138579277003169,'металл',false,false,false,Китай,'?'
false,-0.029115508347429934,true,1.2490107631545084,0.30117751253280145,-0.21454796649554478,OneYear,false,'0.75',false,false,false,false,true,true,1,2,-0.00138579277003169,'сталь_стекло',true,false,false,Китай,'?'
false,-0.03884378577748425,false,-0.8161379907721233,0.5591472331578267,0.47253351610494887,OneYear,false,'1',false,false,false,false,true,true,1,1,-0.00138579277003169,'пластик_металл',false,true,false,Китай,'?'
false,-0.04326573006387258,true,0.42295126158385576,-1.199737225649161,-0.21454796649554478,OneYear,false,'0.68',false,false,false,false,true,true,1,1,-0.00138579277003169,'пластик',true,false,false,Россия,'?'
false,-0.04267613749235414,true,0.31969382388752415,-0.7307013699672976,-0.21454796649554478,OneYear,false,'1',false,false,false,false,false,true,1,1,0.129382652254913,'пластик_сталь',true,true,false,Китай,'?'
false,-0.019682027203134833,false,-0.8161379907721233,0.4418882692373608,0.30076314545482546,OneYear,false,'0.7',false,false,true,true,false,true,4,2,-0.00138579277003169,'пластик_стекло',true,true,false,Китай,'поддержание_температуры'
false,-0.020566416060412502,false,-0.5063656776831286,0.4418882692373608,1.1596149987054425,TwoYears,false,'0.75',false,false,false,false,true,true,?,2,0.26015109727985736,'пластик_стекло',false,false,false,Китай,'поддержание_температуры'
false,-0.016734064345542612,false,-0.38245675244753036,0.5825990259419201,0.40382536784489975,OneYear,false,?,false,false,false,false,true,true,?,?,-0.00138579277003169,'сталь',true,true,false,Китай,'?'
false,-0.04002297092052114,false,-0.6509260904579927,0.4184364764532673,-0.45502648540571733,OneYear,false,'0.75',false,false,false,false,true,true,?,?,-0.00138579277003169,'пластик',false,false,false,Китай,'?'
false,-0.04002297092052114,false,-0.6509260904579927,0.4184364764532673,-0.45502648540571733,OneYear,false,'0.75',false,false,false,false,true,true,?,?,-0.00138579277003169,'пластик',false,false,false,Китай,'?'
false,-0.03736980434868815,false,0.21643638619119257,-1.059026468944602,-0.3863183371456682,OneYear,false,'0.75',false,false,true,true,true,true,1,1,-0.00138579277003169,'пластик',true,true,false,Китай,'?'
false,-0.02852591577591149,false,0.6707691120550514,-0.49618344212636595,0.09463870067467688,OneYear,false,?,false,false,false,true,true,true,7,?,-0.00138579277003169,'сталь',true,false,false,Китай,'поддержание_температуры'
false,-0.03736980434868815,false,-0.2998508022904654,-0.6134424060468319,-0.5580887077957917,OneYear,false,'0.7',false,false,false,false,true,false,1,?,-0.00138579277003169,'пластик',true,true,false,Китай,'?'
false,-0.03442184149109593,false,0.5262086992801873,-1.0824782617286952,-0.45502648540571733,OneYear,false,'0.75',false,false,false,false,true,true,1,1,-0.00138579277003169,'сталь',true,false,false,Китай,'?'
false,-0.03442184149109593,true,?,?,?,OneYear,false,?,false,false,false,true,true,true,1,1,-0.00138579277003169,'пластик_сталь',true,true,false,Китай,'?'
false,-0.016734064345542612,false,0.009921510798529376,-0.2616655142854343,1.1596149987054425,OneYear,false,'1',false,false,false,true,true,true,1,2,0.129382652254913,'металл',true,true,false,Китай,'шумоподавление'
false,-0.02410397148952316,false,0.42295126158385576,-0.2616655142854343,-0.042777595845421366,OneYear,false,'0.75',false,false,false,false,true,true,1,1,-0.00138579277003169,'стекло',true,false,false,Китай,'?'
false,-0.03442184149109593,false,0.5262086992801873,-0.6368941988309254,-0.5580887077957917,OneYear,false,'0.75',false,false,false,true,true,true,7,1,-0.00138579277003169,'сталь',true,true,false,Китай,'?'
false,-0.03353745263381826,false,-0.7748350156935908,0.9812795032715038,-0.8672753749660133,OneYear,true,'0.65',false,false,false,false,true,true,?,1,-0.00138579277003169,'пластик_сталь_стекло',true,true,false,Китай,'?'
false,-0.0008150649145446324,false,1.2490107631545084,-1.0824782617286952,0.30076314545482546,OneYear,false,'0.7',false,false,false,false,false,false,?,?,-0.6552280178947545,'стекло',true,true,false,Китай,'?'
false,-0.026167545489837716,false,0.6294661369765189,-1.199737225649161,-0.5580887077957917,OneYear,false,'0.75',false,false,true,true,true,true,5,1,-0.00138579277003169,'стекло_металл',true,true,false,Китай,'поддержание_температуры'
false,-0.03589582291989204,false,?,?,?,TwoYears,false,'0.7',false,false,false,false,true,true,?,?,-0.00138579277003169,'металл',false,false,false,Китай,'?'
false,-0.02557795291831927,false,?,?,?,OneYear,false,?,false,false,false,false,false,false,?,?,0.3909195423048021,'пластик_стекло',false,false,false,Китай,'?'
false,-0.036485415491410475,false,0.09252746095559436,0.7467615754305722,-0.042777595845421366,OneYear,false,'0.75',false,false,false,false,true,true,1,1,-0.00138579277003169,'пластик',true,true,false,Китай,'?'
false,-0.03442184149109593,false,-0.19659336459413382,-0.49618344212636595,-0.21454796649554478,TwoYears,false,'0.7',false,false,false,false,true,true,1,1,-0.00138579277003169,'стекло',true,false,false,Китай,'?'
false,-0.03619061920565126,true,0.42295126158385576,0.2073703413964291,0.12899277480470206,OneYear,false,'0.65',false,false,true,true,true,true,5,2,-0.26292268281992076,'сталь',true,true,false,Китай,'поддержание_температуры'
false,-0.02557795291831927,true,-0.19659336459413382,1.1454420527601559,-0.5580887077957917,OneYear,false,?,false,false,false,false,true,true,1,1,-0.00138579277003169,'сталь',true,true,false,Китай,'?'
false,-0.02852591577591149,false,0.6707691120550514,-0.49618344212636595,0.09463870067467688,OneYear,false,?,false,false,false,true,true,true,7,?,-0.00138579277003169,'сталь',true,false,false,Китай,'поддержание_температуры'
false,-0.03736980434868815,false,0.21643638619119257,-1.059026468944602,-0.3863183371456682,OneYear,false,'0.75',false,false,true,true,true,true,1,1,-0.00138579277003169,'пластик',true,true,false,Китай,'?'
false,-0.009069360915802845,true,1.0631473753011118,-0.9652192978082293,0.91913647979527,TwoYears,false,'1',false,false,true,true,true,true,9,1,-0.26292268281992076,'сталь',true,true,false,Китай,'поддержание_температуры'
false,-0.036485415491410475,false,0.09252746095559436,0.7467615754305722,-0.042777595845421366,OneYear,false,'0.75',false,false,false,false,true,true,1,1,-0.00138579277003169,'пластик',true,true,false,Китай,'?'
false,-0.036485415491410475,false,0.8153295248299155,-0.49618344212636595,-1.554356857566507,OneYear,false,'0.75',false,false,false,false,true,true,1,1,0.129382652254913,'сталь',true,true,false,Китай,'?'
false,-0.03501143406261437,false,-0.7128805530757918,0.32462930531689493,0.47253351610494887,TwoYears,false,'0.78',false,false,false,false,true,true,?,2,-0.00138579277003169,'пластик_металл',true,false,false,Китай,'?'
false,-0.03442184149109593,false,-0.7541835281543242,0.5591472331578267,0.8160742574051957,OneYear,false,'0.8',false,false,false,false,false,true,?,?,0.129382652254913,'пластик',true,false,false,Китай,'?'
false,-0.02852591577591149,false,?,?,?,TwoYears,false,?,false,false,false,false,true,true,?,?,-0.00138579277003169,'пластик_стекло',true,false,false,Китай,'поддержание_температуры'
false,-0.03560102663413282,false,-1.1672132789396505,0.5591472331578267,0.6443038867550723,OneYear,false,'0.7',false,false,false,false,true,true,1,2,-0.00138579277003169,'пластик',true,true,false,Китай,'?'
false,-0.03442184149109593,false,-0.19659336459413382,0.6764061970782925,-0.5580887077957917,OneYear,false,'0.7',false,false,false,false,true,true,1,1,-0.00138579277003169,'пластик_сталь',true,true,false,Китай,'?'
false,-0.022629990060727054,true,0.6294661369765189,-0.027147586444502582,0.6443038867550723,TwoYears,false,'0.75',false,false,false,false,true,true,1,1,-0.00138579277003169,'?',true,true,false,Китай,'?'
false,-0.03442184149109593,false,-0.7128805530757918,0.32462930531689493,-0.45502648540571733,OneYear,false,'0.75',false,false,false,false,true,true,1,1,-0.00138579277003169,'сталь',true,false,false,Китай,'?'
false,-0.036485415491410475,false,0.09252746095559436,0.7467615754305722,-0.042777595845421366,OneYear,false,'0.75',false,false,false,false,true,true,1,1,-0.00138579277003169,'пластик',true,true,false,Китай,'?'
false,-0.023219582632245498,true,0.21643638619119257,-1.5046105318423724,0.12899277480470206,OneYear,false,'0.85',false,false,true,true,false,true,11,2,-0.9167649079446436,'сталь',true,true,false,Китай,'поддержание_температуры'
false,-0.04149695234931725,false,-0.5683201403009277,-0.660345991615018,-0.729859078445915,OneYear,false,'0.75',false,false,false,false,true,true,?,?,-0.9167649079446436,'пластик_стекло',false,false,false,Китай,'?'
false,-0.02557795291831927,false,0.42295126158385576,-0.49618344212636595,-0.21454796649554478,OneYear,false,'0.75',false,false,false,false,true,true,1,1,-0.00138579277003169,'стекло',true,false,false,Китай,'?'
false,-0.03206347120502215,false,-0.8161379907721233,-1.199737225649161,-0.5580887077957917,OneYear,false,'1',true,false,true,true,true,true,5,1,0.129382652254913,'пластик_стекло_металл',true,true,false,Китай,'поддержание_температуры_заваривание_чая'
false,-0.03736980434868815,false,-0.981349891086254,0.09011137747596326,-0.07713166997544654,OneYear,false,'0.6',false,false,false,false,true,true,1,1,-0.26292268281992076,'пластик_стекло',true,false,false,Китай,'?'
false,-0.02439876777528238,false,-0.8780924533899225,0.6764061970782925,0.6443038867550723,TwoYears,false,?,false,false,false,false,true,true,1,?,-0.26292268281992076,'?',true,true,false,Китай,'?'
false,-0.04149695234931725,false,-0.7128805530757918,0.488791854805547,-0.042777595845421366,OneYear,false,'0.6',false,false,false,false,true,true,1,1,-0.00138579277003169,'пластик',true,true,false,Китай,'?'
false,-0.03088428606198526,true,0.4022997740445891,-1.176285432865068,0.09463870067467688,TwoYears,false,'0.75',false,false,false,false,true,false,1,?,-0.00138579277003169,'пластик_стекло',true,true,false,Китай,'?'
false,-0.03442184149109593,false,-0.7025548093061584,0.3504262773793973,-0.0015527068893914028,OneYear,false,'0.75',false,false,false,false,true,true,1,?,-0.00138579277003169,'пластик_стекло',true,true,false,Китай,'?'
false,-0.031473878633503705,false,?,?,?,OneYear,false,?,false,false,false,false,false,false,1,?,-0.26292268281992076,'сталь',true,true,false,Китай,'?'
false,?,false,?,?,?,OneYear,false,?,false,false,false,false,true,false,1,?,-0.00138579277003169,'пластик',false,false,false,Китай,'?'
false,-0.016734064345542612,false,0.691420599594318,-0.7072495771832041,0.33511721958485063,OneYear,false,?,false,false,false,false,true,true,?,?,-0.00138579277003169,'пластик_сталь',true,true,false,Китай,'?'
false,-0.031473878633503705,false,0.009921510798529376,-0.8479603338877635,-0.9016294490960385,OneYear,false,'0.75',false,false,false,false,true,true,1,1,-0.00138579277003169,'сталь',true,false,false,Китай,'?'
false,-0.040317767206280365,true,0.21643638619119257,-0.9652192978082293,-0.21454796649554478,OneYear,false,'0.7',false,false,false,false,false,true,1,?,0.129382652254913,'пластик_сталь',true,true,false,Китай,'?'
false,-0.016734064345542612,false,-0.38245675244753036,0.5825990259419201,1.331385369355566,OneYear,false,'1',false,false,true,true,true,true,8,?,-0.00138579277003169,'сталь',true,true,false,Китай,'поддержание_температуры'
false,-0.031473878633503705,true,-1.0226528661647865,0.2073703413964291,1.1596149987054425,OneYear,false,'0.75',false,false,false,false,true,true,1,2,-0.00138579277003169,'сталь',true,true,false,Китай,'?'
false,-0.03943337834900269,false,0.5468601868194539,-0.8479603338877635,-0.21454796649554478,OneYear,true,'0.75',true,false,false,false,true,true,1,1,0.129382652254913,'стекло',true,true,false,Китай,'заваривание_чая'
false,-0.03442184149109593,false,0.8359810123691821,-0.7307013699672976,0.8160742574051957,OneYear,false,'0.75',false,false,false,false,true,true,1,1,-0.00138579277003169,'стекло',true,true,false,Китай,'?'
false,-0.023514378918004716,false,-0.8780924533899225,0.6764061970782925,0.30076314545482546,TwoYears,false,?,false,false,false,false,true,true,4,2,-0.5898437953822822,'сталь',true,true,false,Китай,'?'
false,-0.03206347120502215,false,-0.6715775779972593,0.25427392696461526,1.0221987021853443,TwoYears,false,'0.7',false,false,true,true,false,true,7,2,-0.00138579277003169,'пластик',true,true,false,Китай,'поддержание_температуры'
false,-0.02587274920407849,false,-0.7335320406150581,0.488791854805547,0.7473661091451466,OneYear,false,'0.7',false,false,true,true,true,true,7,2,-0.00138579277003169,'пластик_стекло',true,true,false,Китай,'поддержание_температуры'
false,-0.03442184149109593,false,0.6501176245157856,-1.0121228833764155,-0.11148574410547049,TwoYears,false,?,false,false,false,false,true,true,1,?,-0.00138579277003169,'металл',true,true,false,Китай,'?'
false,-0.02852591577591149,true,-0.8367894783113896,0.5825990259419201,0.09463870067467688,OneYear,false,'0.7',false,false,false,false,true,true,1,?,-0.00138579277003169,'пластик_металл',true,true,false,Китай,'?'
false,?,false,?,?,?,OneYear,false,?,false,false,false,false,true,false,1,?,-0.00138579277003169,'сталь',true,true,false,Китай,'?'
false,-0.038254193205965806,false,0.8772839874477146,-0.5665388204786457,-0.5580887077957917,ThreeYears,false,'0.75',false,true,false,false,true,true,1,1,0.129382652254913,'металл',false,false,false,Китай,'?'
false,-0.03442184149109593,true,-0.7128805530757918,0.32462930531689493,-0.45502648540571733,OneYear,false,'0.75',false,false,false,false,true,true,1,1,-0.00138579277003169,'сталь',true,true,false,Китай,'?'
false,-0.03442184149109593,true,0.21643638619119257,-0.37892447820590014,0.12899277480470206,TwoYears,false,'0.8',false,false,false,false,true,true,1,1,-0.00138579277003169,'пластик_стекло',true,true,false,Китай,'?'
false,-0.03736980434868815,false,0.21643638619119257,-1.059026468944602,-0.3863183371456682,OneYear,false,'0.75',false,false,true,true,true,true,1,1,-0.00138579277003169,'пластик',true,true,false,Китай,'?'
false,-0.012312120059154288,true,-0.2998508022904654,0.2073703413964291,1.1596149987054425,OneYear,false,'0.6',true,false,true,true,true,true,5,1,-0.00138579277003169,'стекло',true,true,false,Китай,'поддержание_температуры_заваривание_чая'
false,-0.022629990060727054,false,-0.19659336459413382,0.2073703413964291,-0.21454796649554478,OneYear,false,'0.75',false,false,false,false,true,true,1,1,-0.00138579277003169,'стекло',true,false,false,Китай,'?'
false,-0.043560526349631805,true,-0.8574409658506559,0.2777257197487088,-0.14583981823549566,OneYear,false,'0.75',false,false,false,false,true,true,1,1,0.129382652254913,'пластик_сталь',true,true,false,Китай,'?'
false,-0.05903733135199095,true,-1.0226528661647865,0.6295026115101063,0.47253351610494887,OneYear,false,'0.9',false,false,false,false,true,true,1,2,0.3909195423048021,'пластик',true,true,false,Китай,'?'
false,-0.03088428606198526,true,-0.8161379907721233,0.4418882692373608,0.06028462654465293,OneYear,false,'0.65',false,false,false,false,true,true,1,1,-0.00138579277003169,'пластик_сталь_стекло',true,false,false,Китай,'?'
